% stress_xx (Pa) stress_yy (Pa) stress_zz (Pa) stress_xy (Pa) stress_xz (Pa) stress_yz (Pa)
0.000000e+00 0.000000e+00 0.000000e+00 0.000000e+00 0.000000e+00 0.000000e+00
0.000000e+00 0.000000e+00 0.000000e+00 0.000000e+00 0.000000e+00 0.000000e+00
-2.161258e+08 1.435897e+08 1.652800e+08 -6.349189e+06 1.533348e+08 -2.197848e+08
0.000000e+00 0.000000e+00 0.000000e+00 0.000000e+00 0.000000e+00 0.000000e+00
-7.748516e+07 -1.941308e+08 2.246206e+08 2.016561e+08 -9.432022e+07 1.594318e+08
2.062786e+08 -1.027667e+08 -2.161042e+08 2.063682e+08 -6.289332e+07 1.439420e+08
0.000000e+00 0.000000e+00 0.000000e+00 0.000000e+00 0.000000e+00 0.000000e+00
2.407305e+08 1.286454e+08 4.986497e+07 7.981671e+07 -9.109181e+06 -2.227294e+08
1.403017e+08 1.403740e+08 1.364969e+08 2.216963e+08 8.177705e+07 -9.177444e+07
2.288718e+08 -1.399487e+08 3.978225e+07 7.463835e+07 -2.308032e+08 -9.221892e+07
4.118236e+06 -1.460888e+08 1.602472e+08 2.470301e+08 1.885339e+08 -1.490779e+08
-2.155827e+07 2.146992e+08 -2.007767e+08 -9.239015e+07 -1.738383e+08 8.658864e+07
-1.632241e+08 4.634709e+07 7.204098e+07 -2.064875e+08 2.391400e+07 -1.833806e+07
1.600805e+08 -1.370915e+08 -1.510466e+07 -1.892000e+08 1.972744e+08 -9.295649e+07
-1.369668e+08 2.028163e+08 1.431378e+08 1.547484e+08 -1.224834e+08 7.256909e+07
-2.389849e+08 1.974777e+08 4.143167e+07 -1.345939e+08 -1.162780e+08 2.076087e+08
-2.041440e+08 -2.184585e+07 1.809750e+08 5.004885e+06 -5.571956e+07 -1.166226e+08
6.599669e+07 -1.129800e+07 -1.753320e+08 2.388109e+08 -5.854202e+06 8.660557e+07
-7.758602e+07 -2.385678e+08 -2.431218e+08 1.690644e+08 -7.190998e+07 -2.513517e+07
6.816676e+07 -1.785511e+08 -3.686434e+07 9.594736e+07 2.231868e+08 9.334469e+07
2.320248e+08 -2.256131e+08 -3.233092e+06 -8.756251e+07 -1.584614e+08 -2.385828e+08
-2.248892e+07 -2.159313e+07 -2.334021e+08 1.497230e+08 2.134880e+08 -4.412263e+07
2.106224e+08 1.323015e+08 -2.023104e+08 2.053995e+08 -2.475133e+08 -1.186564e+07
2.022427e+08 1.277043e+08 -2.029129e+08 -2.490467e+08 1.506608e+08 -9.703671e+07
-2.627605e+07 -1.597429e+08 -1.288735e+05 1.370138e+08 -1.175074e+07 -2.417222e+08
7.757331e+07 1.591986e+07 -1.606672e+08 1.431898e+08 -2.028029e+08 1.268726e+08
2.357343e+08 -2.446238e+08 -1.939014e+08 -1.354403e+08 -7.416524e+07 -9.319075e+07
2.337534e+08 2.153691e+08 -1.229860e+08 -1.294624e+08 8.383385e+07 -1.138947e+08
1.613694e+08 -2.196384e+08 1.612218e+08 5.025198e+07 -2.227412e+08 8.776190e+06
8.388840e+07 -2.387012e+08 8.555006e+07 3.092729e+07 4.816032e+07 1.314118e+08
1.511925e+08 2.075598e+08 8.363184e+07 -2.637221e+07 1.347216e+08 5.094795e+07
6.854095e+06 -1.288565e+08 4.947199e+07 -2.280599e+08 2.163954e+08 -1.074932e+08
-1.270171e+08 1.886212e+08 -2.212751e+08 -6.054630e+07 1.685017e+08 -2.333250e+08
-2.698020e+07 9.333681e+07 1.384750e+08 1.923385e+08 5.154695e+07 1.694452e+08
-2.203210e+08 -1.678718e+07 -1.664798e+08 -2.284832e+08 -7.137780e+07 1.332297e+08
2.452882e+08 2.152617e+08 1.612539e+08 2.451858e+08 -1.963391e+08 1.800161e+05
9.863939e+07 -6.921952e+07 -1.717790e+08 1.233761e+08 2.555415e+07 -2.072504e+08
-2.179609e+08 1.031273e+08 -1.061909e+08 -7.840297e+07 1.280763e+08 -1.350761e+07
-1.174331e+08 -1.986433e+08 6.790331e+07 3.311700e+07 -4.803393e+07 2.346010e+08
-5.425488e+07 1.850707e+08 2.198755e+08 -2.052025e+08 6.381093e+07 7.200746e+07
-6.265712e+07 -1.552410e+08 5.793772e+07 9.888604e+07 -2.079365e+07 -1.688081e+08
-1.517889e+08 7.226330e+07 -5.883980e+07 1.518929e+08 -2.118321e+08 -1.198826e+08
1.712698e+08 -9.512092e+07 1.697263e+08 -2.446186e+08 2.027739e+08 1.126767e+08
-2.373152e+08 1.961373e+08 -7.291121e+07 -2.404648e+07 -1.776439e+08 5.300570e+06
-4.252986e+07 7.086520e+07 2.079864e+08 2.095376e+08 -7.981512e+07 -2.748491e+07
2.088059e+08 -1.308690e+08 2.067044e+08 1.080077e+08 1.811678e+08 -9.538346e+07
1.952263e+08 1.159678e+08 -3.666590e+07 1.436058e+08 1.845725e+08 -1.532608e+07
-3.882364e+07 -1.251724e+08 1.352985e+08 -2.458952e+08 -4.774472e+07 -6.136238e+07
3.577422e+07 -7.061162e+07 2.446249e+07 -2.171209e+08 1.449069e+07 9.278684e+07
-2.395361e+08 -1.100865e+08 1.618994e+08 -8.515475e+07 -8.609355e+07 -1.083918e+08
1.198817e+08 -2.044111e+07 8.847489e+06 -4.893971e+06 1.270477e+08 -1.450187e+08
2.920517e+07 1.615170e+08 -2.416620e+07 2.395477e+08 -9.697923e+07 1.771352e+08
5.076325e+07 1.486107e+08 -1.151283e+08 7.215106e+07 1.320834e+08 -1.040414e+08
-7.511354e+07 -1.534635e+08 -2.484928e+08 -1.200197e+08 1.407616e+08 -2.184376e+08
7.216669e+07 -1.512919e+08 -3.175611e+07 -1.498913e+07 1.956605e+08 -1.495343e+08
-1.321535e+08 -8.909785e+07 2.925566e+07 9.159664e+07 2.304111e+08 -2.391734e+08
1.484048e+08 -2.462577e+08 -9.075658e+07 1.695187e+08 -9.986999e+07 -9.928035e+07
-1.526518e+08 1.145295e+08 1.535775e+08 -1.946165e+07 -3.189057e+07 3.716330e+07
-2.449785e+08 5.679527e+07 7.059417e+07 1.362033e+08 -1.106224e+08 -4.451015e+06
-1.546101e+07 -1.910693e+08 -7.345892e+07 1.130602e+07 2.121393e+08 1.457101e+07
-1.400296e+08 -1.207067e+08 -2.415773e+07 -8.363370e+07 9.801712e+07 -8.315370e+07
1.732283e+08 -1.500949e+08 2.057268e+08 -2.199031e+08 -1.493585e+08 -7.057046e+07
1.190313e+08 9.490360e+07 1.460817e+08 -6.019779e+07 -2.360970e+08 9.452870e+07
-9.084941e+04 2.191204e+08 -1.662061e+08 7.256635e+07 -9.129416e+07 -5.614945e+07
-2.425799e+08 1.577425e+08 2.398542e+08 1.773358e+08 -1.288440e+08 2.275491e+08
2.081767e+08 1.340800e+08 -6.165194e+06 -8.037863e+07 1.693818e+08 -1.940606e+08
1.137028e+08 -3.842810e+05 -2.280315e+08 1.909998e+08 8.457555e+07 2.084684e+08
-1.524758e+08 -1.077953e+07 -7.118363e+07 -1.449841e+08 -2.043919e+08 -1.086832e+08
1.429005e+08 1.710326e+07 -2.070981e+08 2.485897e+08 1.114809e+07 -1.830935e+07
2.436229e+08 -1.688036e+08 -1.094414e+08 -1.042266e+08 5.779836e+07 2.494109e+08
-2.189722e+08 1.368910e+08 -1.386006e+08 -2.425958e+08 6.792117e+06 -9.882472e+07
-4.622929e+07 -6.461912e+07 2.212077e+08 8.780681e+07 1.776196e+08 8.650980e+07
2.072629e+08 1.737729e+07 1.712567e+08 2.146453e+08 4.707582e+07 -2.209900e+08
-1.265823e+08 3.373329e+07 -1.723374e+08 1.607982e+08 2.069341e+08 -1.458669e+08
1.723296e+08 2.002012e+08 7.102653e+07 1.992219e+08 -1.930400e+08 1.126431e+08
1.349823e+07 -1.710271e+08 -7.950163e+07 6.666953e+06 2.449539e+08 2.033083e+07
2.024393e+08 -2.346816e+08 -1.060470e+08 -7.019851e+07 -9.081995e+07 -1.722935e+08
1.634054e+08 -2.177404e+08 1.630185e+08 -1.727388e+08 8.083044e+07 -2.267422e+08
-4.278333e+06 -1.926411e+08 2.383231e+07 -1.658089e+08 -2.095680e+08 -1.222692e+07
1.929075e+08 -1.822272e+08 3.535956e+07 1.224607e+08 -8.446054e+07 -3.674181e+07
-6.629160e+07 1.575558e+08 4.167771e+07 7.793460e+07 2.174790e+08 9.919358e+07
-9.580461e+07 7.686911e+07 1.555752e+08 -1.348974e+08 -1.729038e+08 7.401706e+07
2.401577e+08 -5.952630e+07 -4.020967e+07 -2.352335e+08 3.638350e+06 5.875045e+07
4.985818e+07 -1.004157e+08 7.150769e+07 -5.148003e+07 2.378324e+08 -1.893339e+08
2.048942e+08 1.255998e+08 -1.945976e+08 2.165834e+08 2.355757e+08 7.894200e+07
2.287869e+08 6.967189e+07 1.957574e+08 -1.278385e+07 -1.477212e+08 -8.876433e+06
-1.265997e+07 8.279712e+06 1.025350e+08 2.401327e+08 -5.340253e+07 -2.332230e+07
2.039997e+08 1.136278e+08 7.358555e+07 -6.474344e+07 -9.098793e+07 9.723888e+07
-2.429737e+08 -1.304151e+08 -2.109419e+08 -1.050013e+08 2.538456e+07 -2.300592e+08
-5.333075e+07 7.528432e+07 -2.253438e+06 6.547949e+07 -2.272560e+08 -1.799773e+08
2.004764e+08 1.807538e+08 -2.283694e+08 -1.967484e+08 -5.473086e+07 -1.050334e+08
5.559185e+07 -5.058796e+07 7.248637e+07 1.903852e+08 -1.363619e+08 -1.003396e+07
6.549967e+07 -1.390246e+08 -2.044410e+07 9.382891e+07 -2.998829e+07 -1.620361e+08
2.142600e+08 -1.712312e+08 -1.053863e+08 -1.573642e+08 1.092694e+08 4.415797e+07
-1.052236e+08 -1.841138e+08 3.418632e+07 7.325220e+07 -3.000904e+07 1.178380e+08
-8.403640e+07 -3.206248e+07 -4.311493e+07 1.034709e+08 4.815289e+07 1.162623e+08
-8.156886e+07 2.437400e+08 -2.137673e+08 1.069849e+08 -1.385895e+08 -5.620335e+07
1.709097e+07 1.590790e+08 6.066950e+07 1.189951e+08 2.001202e+08 1.746593e+08
1.492001e+08 9.072048e+07 -2.374758e+08 -2.381269e+08 -1.826250e+06 -1.264090e+08
-1.153246e+07 -2.021511e+08 -1.316693e+07 -1.477442e+08 9.472412e+07 -1.292352e+08
9.589951e+07 5.114880e+06 2.145685e+08 -3.527853e+07 -1.825302e+08 -5.989796e+07
-6.008319e+07 -1.977150e+08 2.104248e+08 1.940292e+08 8.828165e+07 -5.057422e+07
2.974301e+07 -1.552190e+08 -5.366392e+07 1.876107e+08 -1.212146e+08 -8.933932e+07
4.922300e+07 4.387576e+06 1.933361e+08 5.163833e+07 1.624290e+08 3.630253e+07
-2.186291e+08 -1.649746e+08 -1.984095e+08 -2.159113e+08 4.895240e+07 -2.088611e+08
-1.435343e+08 -3.367377e+07 -1.002512e+08 2.437352e+08 2.046333e+08 2.233825e+08
-3.557879e+07 4.885269e+07 -1.242168e+08 -8.937493e+07 -1.975287e+07 -1.935927e+08
-1.884589e+08 8.809363e+07 -1.839875e+08 -1.344109e+08 -7.415164e+07 -5.110918e+07
1.713235e+08 -3.493793e+06 -7.872817e+07 -1.982330e+08 4.679074e+07 -2.041327e+08
-2.408301e+05 -1.055571e+08 -5.473343e+07 2.367882e+07 2.622928e+07 1.916249e+08
-1.142170e+08 2.109307e+08 1.086296e+08 4.343874e+06 -2.202445e+08 -2.073553e+08
1.917134e+08 -1.717122e+08 -1.614843e+08 2.424775e+08 -1.027471e+08 -8.560350e+07
-1.825433e+08 1.436309e+08 -5.478431e+07 1.828254e+08 1.039420e+08 5.103506e+07
1.318912e+08 1.887779e+08 1.566713e+08 7.893647e+07 1.895881e+08 1.501049e+08
-1.803800e+08 3.156445e+07 6.989081e+07 -7.246070e+07 2.051781e+07 -2.859823e+06
8.499093e+07 1.061752e+08 -3.420398e+07 -2.174411e+08 2.142582e+08 4.927392e+07
1.803759e+08 -2.344160e+08 -4.568057e+07 7.862491e+07 1.405227e+08 -1.830680e+08
2.116406e+08 -1.835934e+08 4.087403e+07 1.796948e+08 8.104325e+07 1.707495e+08
1.066557e+08 -1.679103e+08 2.348237e+08 -1.551999e+08 8.798340e+07 1.188274e+08
-6.596405e+07 1.836152e+07 -7.574211e+07 -7.220121e+07 -2.449160e+08 -5.121587e+07
2.308846e+08 2.055942e+08 -4.752549e+07 1.076719e+08 -6.221654e+07 1.660275e+08
1.829489e+08 -1.290231e+08 -1.080878e+08 -2.419361e+08 9.797467e+07 1.691285e+08
-1.429891e+08 -1.180470e+08 1.916421e+08 5.487948e+07 -1.242144e+08 1.716285e+08
-1.644431e+08 1.057341e+08 -6.384888e+07 1.607143e+08 7.591874e+07 7.302471e+07
-1.233936e+08 8.882504e+07 -1.782087e+08 1.159974e+08 -4.307709e+07 -1.783175e+08
-1.657738e+08 -5.295888e+07 -2.298471e+08 -1.175040e+08 -4.431635e+07 -3.957114e+07
-4.213695e+06 -2.738109e+07 8.406218e+07 4.708327e+07 2.044334e+08 1.524861e+08
1.200574e+08 -1.665248e+08 1.952922e+07 -1.921324e+08 6.018855e+06 2.335583e+08
-1.285084e+08 -1.718300e+08 1.160345e+08 -5.359711e+07 -2.870199e+07 -1.054566e+08
1.010100e+08 -9.318109e+07 3.417752e+07 1.332031e+07 -8.484605e+07 -2.225583e+08
5.001346e+07 -1.529830e+08 1.185200e+08 -1.733092e+07 -9.013419e+06 -1.246206e+08
1.517140e+08 2.211517e+08 1.144222e+08 -1.343652e+07 -7.665179e+07 5.233064e+07
7.463336e+07 -7.186106e+07 2.256410e+08 2.475025e+08 -1.921732e+08 2.950378e+07
-7.525330e+07 -8.509205e+07 2.105733e+07 -4.174578e+07 -1.775931e+08 -1.254721e+08
-2.460059e+08 -1.988050e+07 -2.434840e+08 4.260982e+07 -9.237892e+07 7.201957e+07
2.463475e+07 1.885398e+08 2.620956e+07 5.802898e+07 1.918298e+08 2.193573e+08
-1.860467e+08 -1.449429e+08 -9.027951e+07 -3.884068e+07 -3.927852e+07 8.598129e+07
-5.936976e+07 -2.191163e+08 -6.986393e+07 5.447365e+07 7.277612e+07 9.283190e+07
5.704561e+07 -4.842181e+07 -2.351783e+08 -1.336007e+08 -2.164213e+08 -2.401178e+08
5.728563e+07 1.269853e+08 2.360393e+08 8.880633e+07 -4.269518e+07 -2.432252e+08
1.100110e+08 -8.188620e+07 -2.269601e+08 -1.532376e+07 6.261438e+07 3.355027e+07
3.815482e+07 -9.710983e+07 1.585178e+08 1.725768e+08 2.446217e+08 8.638443e+07
1.206402e+08 2.032654e+08 -2.395809e+08 -5.846227e+07 6.693374e+07 -8.183223e+07
-1.189997e+08 6.257038e+07 7.541632e+07 -2.224752e+08 1.275188e+08 2.420055e+08
-2.043680e+07 -1.425706e+08 -2.103774e+08 8.277303e+07 1.524882e+08 9.451558e+07
2.395776e+08 -9.415029e+07 -1.360691e+07 4.171759e+07 -1.822003e+08 1.671527e+08
-1.006844e+08 1.694151e+08 -1.263812e+08 1.437648e+08 -1.965784e+08 1.408893e+08
-1.090795e+08 -2.104773e+07 2.289802e+08 -7.108965e+07 2.296283e+08 -2.321764e+08
1.051985e+08 7.041070e+07 6.569459e+07 4.161619e+07 5.877077e+07 -1.395694e+08
2.431893e+08 2.136250e+08 -1.089414e+08 9.886066e+07 1.463747e+08 -3.848454e+07
-8.340419e+07 1.326061e+08 -1.239158e+08 1.834160e+08 -1.885059e+08 7.665574e+07
2.236205e+08 -1.368455e+08 -5.200405e+07 -4.857996e+07 1.748798e+08 1.077644e+08
1.663652e+08 -9.723249e+07 -6.363864e+07 8.940744e+07 3.430105e+07 -1.279164e+08
-2.342984e+08 1.229932e+08 -1.890069e+08 -3.446195e+06 -1.077697e+08 1.214228e+08
1.035570e+08 6.693888e+07 -1.220581e+08 2.078558e+08 1.585874e+08 1.562332e+08
-2.186710e+08 -5.082808e+06 -6.359576e+07 -1.437523e+08 2.452561e+08 -4.982162e+07
-1.876751e+08 2.174159e+08 -1.979533e+08 -1.969985e+08 -1.160939e+08 2.303368e+08
-3.671638e+07 8.175312e+07 -1.792253e+08 -1.718238e+08 -1.008728e+08 -1.556665e+08
-5.395006e+07 -2.386167e+08 5.642565e+07 4.790814e+07 1.014825e+08 -1.324228e+08
-1.744723e+08 1.711150e+08 3.359394e+07 -1.019802e+07 -7.103805e+07 -1.780838e+07
-2.157484e+08 6.484776e+06 1.745051e+08 4.223851e+06 2.931403e+07 -1.857613e+08
2.051391e+08 -1.332885e+08 -7.483616e+07 -1.567957e+08 -2.352841e+08 3.952022e+07
-1.033187e+08 4.812675e+07 -1.834363e+08 1.920125e+08 1.980038e+08 2.262670e+08
-2.494023e+08 2.266285e+08 -3.977285e+07 -4.732783e+07 -1.462124e+08 1.809276e+08
-5.522401e+07 2.195438e+07 -5.409022e+07 -1.324971e+06 5.140575e+07 1.183616e+08
9.788347e+07 -2.369127e+08 1.806686e+08 2.140940e+08 -1.506609e+08 4.100907e+07
-1.415489e+08 2.636773e+07 2.021271e+08 -2.231943e+08 -1.820370e+08 -9.919822e+07
-1.213665e+07 -1.651489e+08 -2.235084e+08 -1.725504e+08 -1.326253e+08 -2.278704e+08
-8.569243e+07 -3.935202e+07 9.700166e+07 -1.717297e+08 -1.690102e+08 1.367474e+08
-2.068540e+08 1.763092e+08 -1.747908e+07 7.541457e+07 9.240560e+07 -2.234904e+08
2.327887e+08 7.352578e+07 2.092694e+08 -5.961119e+07 1.866587e+07 2.208262e+08
-5.530577e+06 -8.668090e+07 -1.917196e+08 1.032432e+08 -4.194645e+07 -1.833049e+08
2.417327e+08 8.015772e+07 1.965438e+08 3.435363e+07 -1.447692e+08 -1.412900e+07
2.056415e+07 2.221034e+08 1.803324e+08 -2.351836e+08 -1.000284e+08 2.161248e+08
1.612461e+08 1.373941e+06 2.203251e+08 1.600819e+08 -2.485908e+08 -3.479533e+06
-1.375925e+08 4.792966e+07 -1.186152e+08 -2.269097e+08 -1.067581e+08 4.555523e+07
-1.751145e+08 -2.078183e+08 -6.114725e+07 5.817307e+07 2.379891e+08 -1.204389e+08
-1.323947e+08 -1.059202e+08 -1.464199e+08 -1.154536e+08 1.089324e+08 1.440350e+08
-1.043520e+08 1.338596e+08 -3.738448e+07 9.801711e+07 -2.452173e+08 -1.722589e+08
2.193583e+08 -1.367933e+08 2.902613e+07 2.760032e+07 2.425725e+08 -1.725675e+08
-1.565141e+08 2.814108e+07 1.383163e+08 -1.727954e+08 1.554564e+08 -1.385609e+07
-1.377656e+08 -1.339695e+08 -2.476290e+08 -1.917939e+08 -1.824837e+08 3.487353e+07
9.146534e+07 -1.614830e+08 -4.232177e+07 -1.657916e+08 -8.989150e+07 1.993089e+08
-2.133764e+08 1.809236e+08 -9.175362e+07 -1.243499e+07 -1.852045e+08 -4.012216e+07
3.192579e+07 1.049628e+08 -2.179004e+07 -6.846026e+05 -1.910081e+08 1.133528e+08
-1.975827e+08 2.407796e+06 1.695879e+08 1.737526e+08 1.377212e+08 1.419917e+08
-2.769757e+07 2.397965e+08 1.919248e+08 -2.009508e+08 -1.688752e+08 -1.922729e+08
2.448985e+08 8.576267e+07 2.443678e+08 3.557849e+07 2.441509e+08 -3.993264e+07
-5.190095e+07 -2.222218e+08 -1.844972e+08 -3.283706e+07 -1.914078e+08 -5.293927e+07
1.242341e+08 -2.341696e+08 -7.586210e+07 5.340912e+07 -1.795126e+08 -3.733620e+07
-1.067578e+08 2.079942e+08 1.055811e+08 1.971546e+08 4.079066e+07 3.644389e+07
-2.688975e+07 1.204150e+08 2.530118e+07 4.346539e+07 -1.212270e+08 3.785988e+07
1.433531e+08 1.796474e+08 -2.285088e+08 2.080594e+08 -4.481360e+06 -9.306957e+07
-1.331220e+08 -5.616109e+07 -9.659230e+07 -4.062800e+07 -9.629812e+07 -1.619476e+08
-1.641626e+08 3.659963e+07 -2.430384e+08 6.181076e+07 1.362742e+08 -1.601704e+08
-7.821736e+07 2.389033e+08 -2.261298e+08 -2.354422e+07 1.431078e+08 -1.213488e+07
2.364219e+07 5.021367e+07 -2.147686e+08 2.489381e+08 1.042311e+08 -1.439150e+08
1.594308e+08 7.006004e+06 -1.723447e+08 1.372227e+08 -1.225717e+07 3.435456e+06
-2.157158e+08 7.604607e+06 -1.085406e+08 -2.096655e+08 8.456479e+07 3.901041e+07
1.325845e+08 1.093671e+06 -3.063447e+07 4.922294e+07 8.300464e+07 1.143896e+08
2.259091e+08 1.998447e+08 -7.103993e+07 -2.132333e+08 8.169250e+07 -1.399780e+08
2.259236e+08 -1.428223e+08 -1.375789e+08 -1.497259e+08 1.340005e+08 3.839457e+06
-7.003534e+07 -2.205106e+08 2.023960e+08 -1.982224e+08 5.329807e+07 1.670617e+08
1.383867e+08 1.272565e+08 -5.916497e+07 1.985399e+08 -1.425401e+08 -9.691565e+07
2.468328e+08 -1.851969e+08 1.511176e+07 -5.961773e+07 -6.391224e+07 1.170800e+08
1.728277e+08 -1.340184e+08 2.182902e+08 -1.695945e+07 -2.495707e+08 -2.089195e+08
1.278372e+08 2.092965e+08 2.136655e+08 2.558404e+06 1.717234e+08 7.095139e+07
1.478693e+07 -1.478035e+08 8.987913e+07 1.206509e+08 1.859940e+08 1.252337e+08
-1.807703e+08 1.398277e+08 -7.047677e+07 1.646921e+08 -5.887714e+07 -2.142191e+07
-1.536991e+08 7.971341e+07 -1.205647e+08 1.493193e+07 1.477159e+08 1.961499e+08
3.106789e+07 6.984744e+07 1.785688e+08 -1.668799e+07 2.473425e+08 1.317726e+08
2.537833e+06 -9.337877e+07 -1.158994e+08 -1.214015e+08 2.440334e+08 6.691866e+07
1.197452e+07 -1.589420e+08 -1.708134e+08 -1.887092e+08 1.028473e+08 1.057855e+08
-2.466383e+08 -2.303838e+08 7.349498e+07 2.048953e+07 9.505242e+07 4.863237e+07
2.291099e+08 -1.752158e+08 3.674968e+07 -8.413502e+07 -2.342614e+08 8.671949e+07
-8.388511e+07 -1.340113e+08 -7.322832e+07 -1.678076e+08 9.889276e+07 8.502357e+07
2.200495e+08 1.838496e+08 1.503876e+08 -1.463710e+08 2.433486e+07 1.522481e+08
8.595697e+07 -1.956142e+08 9.768099e+07 -3.242146e+07 1.304192e+06 1.598596e+08
-6.203720e+07 8.225453e+07 6.166561e+07 -4.452106e+07 1.652885e+08 -2.466115e+08
-1.942006e+08 -1.467122e+08 2.191674e+08 1.869822e+08 -1.817188e+08 1.905045e+08
-1.404574e+08 3.821031e+07 -1.295532e+08 -2.333522e+08 -8.113584e+07 1.140707e+08
-2.022416e+07 1.577246e+08 2.112722e+08 -2.010254e+07 -9.551804e+07 -6.285238e+07
-1.768821e+08 1.279842e+08 -5.334664e+07 -1.531144e+08 -1.095204e+08 -3.280394e+06
1.354020e+08 -9.614145e+07 3.887778e+07 -1.140058e+08 -2.344772e+08 -1.478316e+08
3.426600e+06 8.838507e+07 -4.463180e+07 -6.373438e+07 6.487238e+07 6.630729e+07
-7.261967e+07 -2.077388e+08 -4.813003e+07 -9.771866e+07 2.114355e+08 2.272898e+08
2.160717e+07 1.588347e+08 1.935490e+08 -1.963082e+08 1.375195e+08 -1.312258e+08
6.582630e+07 1.044628e+08 -2.385207e+08 1.340667e+08 -2.093919e+08 -9.450019e+07
7.720735e+06 1.262057e+08 -8.468049e+07 -1.595492e+07 1.485516e+08 8.833882e+06
-2.265773e+08 7.997350e+07 1.141921e+08 1.502378e+08 -1.841987e+08 -9.372117e+07
-1.068489e+08 1.139553e+08 1.411823e+07 -5.426506e+07 -2.459637e+08 2.296331e+07
2.673456e+07 -6.654665e+07 2.007395e+08 -5.102436e+07 8.166451e+07 -1.681717e+08
-1.227686e+08 4.128246e+07 -1.401734e+08 -9.183889e+07 2.435797e+08 1.462165e+08
4.972195e+07 1.289175e+08 -1.551306e+08 -1.497516e+08 4.984421e+07 -2.329833e+08
-1.881124e+08 1.046203e+08 1.506659e+08 -1.466749e+07 7.959436e+06 2.096937e+08
-8.883606e+07 1.189646e+08 -1.350040e+08 -1.990877e+08 1.185693e+08 2.475917e+08
2.145274e+08 1.515762e+08 -1.989645e+08 1.177465e+08 4.963850e+07 1.346289e+08
-1.050430e+08 3.483639e+07 1.775923e+08 -1.972347e+08 -1.037086e+08 1.925010e+08
-7.015678e+07 -1.346898e+08 -2.245930e+08 -6.641125e+07 -1.423842e+08 1.919731e+07
2.467559e+08 -1.012548e+08 -1.505084e+08 1.611833e+08 2.174206e+08 -1.973219e+08
-2.361910e+08 1.234188e+08 6.261578e+07 -2.079490e+08 9.140564e+07 -1.179128e+07
5.686101e+07 2.245972e+08 7.695299e+07 1.327661e+08 5.190112e+07 -2.366145e+08
1.863924e+08 1.959672e+08 -1.124289e+08 3.435141e+07 1.313816e+08 -1.367689e+08
-2.188912e+08 -1.152228e+08 1.363480e+08 -6.595318e+07 -1.181454e+08 2.214656e+08
-8.452737e+07 2.238136e+08 -1.745632e+08 2.237977e+08 4.027941e+07 4.075350e+07
-2.866371e+07 -5.617303e+07 -1.746602e+08 -1.661782e+08 9.966369e+07 -6.690692e+07
-8.363800e+07 7.483047e+07 1.357622e+08 -4.211173e+07 -6.050315e+07 2.198021e+08
2.018104e+08 -1.717972e+07 -1.652164e+07 -2.836191e+07 -1.180064e+08 -5.908130e+07
-2.383704e+08 -1.696742e+08 -5.929248e+07 8.652120e+07 -7.725250e+07 -8.573969e+07
-1.438078e+08 -1.605740e+08 -7.800713e+07 -4.414976e+07 -9.460015e+07 -1.879961e+08
1.028248e+08 2.148125e+08 2.419534e+08 -1.725076e+08 -2.392384e+08 -1.496794e+08
8.589815e+07 -2.264849e+08 -1.928016e+07 -5.011844e+07 -1.662166e+08 -3.312740e+07
1.938291e+08 1.674048e+07 1.168295e+08 3.781544e+07 7.158771e+07 2.141628e+08
4.870945e+07 6.631140e+07 1.197349e+08 1.244669e+08 2.253743e+08 -8.345435e+06
5.594366e+07 1.523114e+08 -1.236750e+08 -3.453273e+07 -1.101302e+08 -3.073212e+07
-2.498518e+08 1.952197e+08 -1.419924e+08 1.720489e+08 1.867292e+08 1.652386e+08
-2.394561e+08 -4.729085e+07 1.834131e+08 2.278617e+08 1.899443e+08 -9.385561e+07
9.115974e+07 -2.386201e+08 1.088273e+08 -3.772275e+07 1.855832e+08 1.664282e+08
-9.581163e+07 -1.843963e+08 7.349877e+07 1.332969e+07 1.787366e+08 -1.650603e+08
2.235239e+08 2.031880e+08 1.750119e+08 1.069634e+07 -1.997017e+08 -1.762640e+08
1.051723e+08 -2.362401e+08 2.361069e+08 -5.563968e+07 5.328808e+07 2.192425e+08
1.852425e+08 -1.773376e+08 -1.640552e+08 -2.245500e+08 -2.404831e+08 -2.211636e+08
-6.209253e+07 6.535547e+07 1.092496e+08 -9.370677e+07 -1.733251e+08 -2.186078e+08
-1.544225e+08 -1.401037e+08 3.630228e+07 -7.075655e+07 -1.151291e+08 1.513032e+08
-1.600582e+08 1.991305e+08 3.909432e+07 1.911886e+08 5.489669e+07 1.002362e+07
-4.029879e+07 -2.653430e+07 2.235328e+08 -1.840578e+08 1.782186e+08 2.369119e+08
-1.984069e+07 1.981243e+08 1.417535e+08 2.298128e+08 1.235567e+08 2.049370e+07
1.104405e+08 1.492756e+08 3.047268e+07 -1.882353e+08 -4.478301e+07 -2.447709e+08
1.035898e+08 1.055565e+08 -1.946027e+08 -3.820809e+06 -2.044095e+07 -8.709806e+06
5.476912e+07 8.610482e+07 5.017946e+06 1.265718e+08 -1.790644e+08 -2.272319e+08
2.312693e+08 1.290650e+08 1.228871e+08 1.238796e+08 2.462525e+08 -2.363695e+08
3.857075e+07 2.393462e+08 1.458795e+08 1.852496e+08 -9.385083e+07 -8.380582e+07
-2.230081e+08 -8.615951e+07 1.516299e+08 2.027249e+08 -2.283004e+08 -1.423145e+08
-2.316793e+08 4.380281e+07 7.776201e+07 -6.855917e+07 1.157605e+08 -1.337684e+08
-7.779048e+07 -1.101855e+07 2.462786e+08 2.054122e+08 4.144888e+07 8.155003e+07
-1.441324e+08 -1.317163e+08 1.777206e+08 1.449127e+08 1.528989e+08 -7.730138e+07
-4.221471e+06 -2.370537e+08 -2.118744e+08 1.998076e+08 1.900918e+08 1.225244e+08
-1.328104e+07 8.472914e+07 -2.212386e+07 -2.106820e+08 2.375492e+08 -1.083422e+08
2.182163e+08 4.410358e+07 4.081940e+07 3.216183e+07 -1.499689e+08 1.954932e+08
-2.491301e+08 9.317065e+07 2.023918e+08 -2.286098e+08 -2.712496e+07 -1.253014e+08
2.333614e+08 1.274056e+08 -2.088258e+08 -1.099514e+08 8.074124e+07 -4.185798e+07
1.450046e+08 4.651053e+07 -2.188512e+08 2.153734e+08 -2.362638e+08 -2.287172e+08
-5.111312e+07 4.468093e+07 1.001592e+08 -1.184745e+08 2.703151e+07 1.842909e+08
-1.988487e+08 -2.344356e+08 -2.274682e+07 9.017998e+07 8.846317e+07 1.671266e+08
1.908785e+08 1.474176e+08 3.063493e+07 3.422139e+07 3.164102e+07 -1.587853e+08
1.210203e+08 3.046784e+07 7.248789e+07 -1.985337e+08 3.180277e+06 -6.478322e+07
1.988305e+08 1.337582e+08 1.222009e+08 8.175270e+06 -1.114596e+08 7.030414e+07
1.745823e+08 -8.179251e+07 1.628999e+08 1.693580e+08 -2.392928e+08 -1.080195e+08
1.659287e+08 2.491492e+08 -1.561322e+07 2.157185e+08 1.329028e+08 -6.455287e+07
-2.483327e+08 -2.241538e+08 -1.590623e+08 -1.041992e+08 -1.499481e+08 1.077264e+08
1.351440e+08 -1.133515e+08 7.938522e+07 6.615370e+07 7.631820e+07 -2.230586e+08
1.132494e+08 -2.379959e+08 -3.988743e+07 -6.368829e+07 -4.035753e+06 1.025962e+08
1.837763e+08 -1.438495e+08 1.059065e+08 1.116354e+08 -1.711294e+08 -2.215496e+08
6.157239e+07 -2.300309e+08 -2.087310e+08 -2.425205e+07 -9.298422e+07 2.029968e+08
-2.153830e+07 -6.988668e+07 -5.131591e+07 8.050993e+07 1.501447e+07 -4.204179e+07
1.907380e+08 1.693818e+08 -1.751363e+08 -4.712243e+07 -6.754925e+07 7.007225e+07
-2.469472e+08 2.470383e+08 -1.495363e+08 -6.472502e+07 -1.986030e+08 1.446988e+08
2.012535e+08 -1.289950e+08 2.456525e+07 2.070505e+08 -9.852058e+07 1.793904e+08
-1.242344e+08 -1.634643e+08 -2.113582e+08 1.590628e+08 -1.519003e+08 2.067370e+07
2.127725e+08 -1.935480e+08 2.227264e+08 8.276944e+07 1.980064e+08 -6.157069e+07
9.713334e+07 2.017113e+08 5.815619e+07 1.426844e+08 2.054938e+08 -1.644081e+08
2.373121e+08 -1.658750e+07 -9.393416e+07 2.183720e+08 5.066711e+07 1.703723e+08
-1.765869e+08 -2.244813e+08 -2.496741e+08 -1.297988e+08 -2.057765e+08 -1.842775e+08
-7.209162e+07 -2.035892e+08 2.032870e+08 -1.936028e+07 -6.427862e+06 3.719727e+07
1.931352e+08 -1.311632e+08 2.188020e+08 -9.022667e+07 -9.756734e+07 -1.955850e+08
-1.932078e+08 -1.800484e+08 -3.197774e+07 -2.995678e+07 -1.669999e+08 -3.066593e+07
-2.334808e+08 1.624900e+08 1.334741e+08 2.436335e+08 2.444791e+08 -1.767656e+08
-1.246631e+08 -6.611872e+06 -1.557811e+08 1.263174e+08 1.349672e+08 -1.442875e+08
2.033153e+08 2.340867e+08 8.363544e+07 -1.307059e+08 1.068761e+06 -1.772535e+08
2.298217e+08 1.428241e+07 1.271846e+08 -2.120429e+08 7.318978e+07 2.270558e+08
-2.523000e+07 -2.440723e+08 8.094653e+07 -1.087592e+08 6.318897e+07 -1.477807e+08
6.089024e+07 9.056568e+07 4.103094e+07 -2.344348e+07 -1.748763e+08 8.855570e+07
2.149906e+08 -1.889871e+08 5.161390e+07 1.802761e+07 7.210650e+07 1.575654e+08
8.639188e+07 -1.697745e+08 1.321166e+07 2.194672e+08 8.177877e+07 5.894009e+06
1.467592e+08 1.139054e+08 8.465577e+06 -1.909450e+08 6.456163e+07 -2.457577e+08
1.508861e+08 1.178415e+08 -1.754180e+08 5.660987e+07 1.203033e+08 4.646288e+06
-5.148802e+07 -1.891426e+08 2.333868e+08 2.016243e+07 1.286627e+08 -1.241348e+08
9.697814e+07 -1.471193e+08 1.795857e+08 -1.825343e+08 1.587685e+08 -1.294330e+08
-1.225664e+07 2.044020e+08 -3.343231e+07 2.241881e+08 -3.755182e+07 2.459934e+08
8.318948e+07 5.996614e+07 -2.190321e+08 -1.610110e+08 5.120957e+07 1.874171e+08
9.801756e+07 -2.365622e+08 5.858694e+07 -5.097110e+07 -1.420304e+08 1.777808e+08
1.937726e+08 -2.199911e+08 1.215154e+08 6.873468e+07 -2.269670e+08 -1.878126e+08
1.708607e+08 5.429361e+07 -2.525783e+07 1.301173e+08 -1.554287e+08 -5.243787e+07
-1.957183e+08 -4.971161e+07 -5.383664e+07 -2.303556e+08 -2.065461e+08 2.020565e+08
-1.020024e+08 -1.243501e+08 1.865178e+08 4.160034e+07 2.601605e+07 -1.324030e+08
1.496657e+08 7.961185e+07 -1.333666e+08 -1.791788e+07 2.084343e+08 5.376132e+06
9.023045e+07 1.607580e+08 -2.103237e+08 1.462279e+08 -2.668089e+07 -1.014461e+08
-1.971738e+07 2.036583e+08 1.278272e+08 2.427953e+08 1.738769e+08 -1.266353e+08
-2.202628e+08 -1.820600e+08 -2.274928e+08 -9.051274e+06 2.295436e+08 -1.601576e+08
1.999766e+08 3.357210e+07 -2.304610e+08 7.184511e+07 -1.245836e+08 -2.486012e+07
-1.104396e+08 -1.607521e+08 2.250910e+08 -1.923597e+08 -1.782980e+08 1.040751e+08
-1.586077e+08 2.482006e+08 9.659644e+07 5.436341e+07 -8.027118e+07 1.256540e+08
7.012364e+07 2.395663e+08 1.133073e+08 -2.372570e+08 2.345823e+08 -1.469090e+08
1.697534e+08 -7.110384e+07 1.039281e+08 -3.020842e+07 2.040344e+08 2.224817e+07
-1.093758e+08 4.332300e+07 5.523092e+06 -1.650511e+08 -1.358378e+08 8.567527e+07
-1.967989e+08 1.463074e+08 7.981919e+07 9.654401e+07 9.398113e+07 -2.074008e+08
-7.665396e+07 -3.852832e+07 -1.899221e+08 -2.038259e+08 -2.026509e+08 2.355621e+08
-2.000770e+08 -1.155647e+08 -2.389709e+08 4.500671e+07 -2.368564e+08 1.643191e+07
2.483547e+08 1.995920e+08 5.385072e+07 9.895744e+05 -1.835792e+07 2.276816e+08
1.147747e+08 2.057859e+08 -1.726163e+08 -1.042157e+08 -2.470131e+08 2.033003e+08
-1.214939e+08 4.419541e+07 1.475842e+08 -1.911838e+08 2.209787e+08 -5.753550e+07
-1.367743e+08 5.407862e+07 1.950272e+08 -7.833966e+07 -1.560883e+08 2.123324e+08
2.469101e+08 -1.304254e+08 7.855713e+07 2.681965e+07 -1.035721e+08 2.839710e+07
7.638426e+07 8.266077e+07 9.032466e+07 1.602985e+08 2.128284e+08 1.369822e+07
2.446099e+08 -1.059833e+07 6.722580e+07 1.190433e+08 1.333111e+08 1.612256e+08
7.995466e+06 -2.089026e+08 1.580511e+08 1.795141e+08 -4.145866e+07 5.150156e+06
1.032951e+08 1.830397e+08 1.367762e+08 -2.307702e+08 -8.170283e+07 -1.958881e+08
-6.232598e+07 1.424282e+08 -1.692007e+08 -1.357133e+08 -9.985250e+07 -2.199140e+08
-9.332374e+07 2.410657e+08 -2.545520e+07 2.466215e+08 -8.213249e+07 -1.003528e+08
1.871167e+08 1.986461e+08 6.886843e+07 1.045772e+08 2.345439e+08 -2.288406e+08
1.834709e+08 -6.362170e+07 -2.021196e+08 1.371899e+08 1.580927e+08 1.846498e+08
-4.289383e+07 -3.265884e+07 -1.925567e+07 -1.387201e+08 -9.682669e+07 -1.843361e+08
-1.044066e+08 -6.426631e+07 1.986476e+08 -1.725118e+08 2.231550e+08 -6.696542e+07
6.678506e+07 5.710555e+07 9.783081e+07 -1.410547e+08 -1.113133e+08 -1.371324e+08
8.758911e+07 1.703175e+07 -2.237715e+08 3.371410e+07 -1.527242e+08 7.319942e+07
1.009039e+08 -1.969574e+08 1.804990e+08 -1.305075e+08 2.365947e+08 4.631585e+07
2.137039e+08 -8.585833e+07 1.299071e+08 -1.032782e+08 3.752655e+07 -2.099351e+08
8.619201e+07 -7.756819e+07 -1.255822e+08 6.493783e+06 -7.459058e+07 -1.811062e+08
-1.385291e+08 -2.243898e+08 7.392902e+07 -1.629119e+08 2.083930e+08 -1.308016e+07
2.490280e+08 -1.783345e+08 7.414448e+07 -1.883805e+08 -1.326866e+07 -6.901832e+07
-7.598133e+07 -1.647911e+08 1.402320e+08 -1.438217e+08 -9.290410e+07 -1.619182e+08
-1.610737e+07 -1.218692e+08 1.897296e+07 1.578561e+08 -2.471323e+07 -2.899665e+06
-2.040174e+08 3.755336e+07 -3.766798e+07 -6.383469e+07 -5.524467e+07 -2.160645e+07
-1.655855e+08 -8.015774e+05 -1.243775e+08 2.195191e+08 8.702159e+07 1.768715e+08
-1.485663e+08 1.873816e+07 -1.458663e+08 -1.959183e+07 1.061843e+07 -2.436210e+08
2.236993e+08 2.460426e+07 1.849254e+08 5.623226e+07 1.034041e+08 -3.945994e+07
2.459080e+08 -1.776544e+08 1.682389e+08 -3.034225e+07 5.628206e+07 -1.312290e+08
1.168964e+08 9.213238e+07 7.924660e+07 6.093003e+06 -1.109622e+08 -4.084756e+07
1.949807e+08 -1.898270e+08 -4.226028e+07 1.256621e+08 -2.470675e+08 -9.431573e+07
1.027575e+08 -7.407271e+06 7.244918e+07 -2.445491e+08 -4.571198e+07 -5.893282e+07
-9.403509e+07 -4.244489e+07 -1.301219e+08 -6.163107e+07 -7.016170e+07 1.090795e+08
7.577558e+07 7.862875e+07 -2.423309e+08 2.138937e+08 1.763156e+08 -3.259035e+07
-1.276136e+08 2.498800e+07 1.889312e+08 -2.148953e+07 -1.118371e+08 -2.295455e+08
6.968235e+07 -2.445144e+08 1.929529e+08 2.951210e+07 1.542066e+08 1.833180e+08
1.137394e+07 -2.654760e+07 2.274343e+08 3.724429e+07 2.413551e+08 -1.755410e+08
1.394175e+08 -2.268529e+08 1.562082e+08 3.358287e+07 1.977084e+08 -7.993640e+07
1.015857e+07 1.769333e+08 2.471452e+08 -1.254285e+08 5.881275e+06 -1.566334e+08
5.565351e+07 2.149732e+08 -2.476633e+08 2.025218e+08 1.043727e+08 -9.370647e+07
1.703776e+08 4.484299e+07 8.262427e+07 1.474088e+08 2.309109e+08 -1.689176e+08
3.080044e+07 -1.930088e+08 1.729818e+07 1.151101e+08 -1.791872e+08 7.928491e+07
3.324844e+07 1.697806e+08 4.741331e+07 -1.743225e+08 -3.541523e+07 6.121471e+07
1.478129e+08 -2.056472e+08 1.049513e+08 -3.794437e+06 -6.845981e+07 1.296260e+08
-6.299424e+07 1.717317e+08 2.463064e+08 -2.176348e+07 6.188827e+07 9.544856e+07
1.550847e+08 -4.816765e+07 -1.145590e+08 6.870193e+07 1.233940e+08 -1.688846e+08
-1.948885e+07 9.376061e+07 -1.316174e+08 -1.022818e+08 -1.896021e+08 -8.378937e+07
3.339782e+07 3.476729e+07 9.246005e+07 3.381947e+07 1.569156e+08 1.690084e+08
-2.266864e+08 2.852631e+07 9.687368e+07 -1.681716e+08 2.027263e+08 -1.425888e+08
-2.151336e+08 2.410051e+08 7.710210e+07 1.761086e+08 -1.365218e+08 1.835084e+08
1.140366e+08 -4.066409e+07 1.378256e+08 -2.116898e+08 -1.975649e+07 6.124048e+07
-3.579288e+07 1.625071e+08 -7.384811e+06 1.464970e+08 -5.597861e+07 1.456819e+08
1.127412e+07 2.278149e+08 -2.283478e+08 -7.648802e+07 7.020355e+07 -2.432691e+08
-6.427152e+07 -5.520329e+07 3.620612e+07 -1.054713e+08 -1.907572e+07 1.641796e+08
2.695615e+07 -1.638340e+08 1.896771e+08 -1.037709e+08 -1.017461e+08 1.590504e+08
-1.657057e+08 9.403262e+07 2.054751e+07 -8.928192e+07 -1.965332e+08 2.073186e+08
-9.052269e+07 -1.957525e+08 -1.595945e+08 -2.012418e+08 1.798731e+08 -2.357656e+07
-1.807544e+08 2.692014e+07 9.393409e+07 -1.402090e+08 1.069430e+07 -1.911975e+08
-3.894757e+07 -2.421767e+08 1.381639e+08 2.368762e+08 -1.408822e+08 -2.209207e+08
1.556775e+07 -1.093658e+08 -1.183070e+08 2.212251e+08 -2.192640e+08 2.343231e+08
1.804445e+08 2.282300e+08 2.401534e+08 3.696318e+07 1.218586e+08 -1.138436e+08
2.692702e+07 2.914749e+07 2.029511e+08 -3.848838e+07 1.709077e+08 1.843165e+08
-4.037542e+07 -1.828656e+08 1.105456e+08 -1.578761e+08 -1.525819e+07 6.533074e+06
-1.833786e+08 -1.361760e+08 7.861503e+07 -8.768777e+07 1.413605e+08 7.012497e+07
-3.731936e+07 -6.925808e+07 2.496305e+08 4.112940e+06 -1.534424e+08 -3.701671e+07
-2.347868e+08 -1.953394e+08 -1.276955e+08 -7.065560e+07 -2.236575e+08 5.688012e+07
8.746705e+07 -1.037619e+08 -4.168860e+07 -1.866799e+07 1.948536e+08 1.204277e+08
-2.047794e+08 -1.210036e+08 7.526259e+07 -1.810691e+08 -8.835165e+07 1.029398e+07
-1.268702e+08 -1.052828e+08 6.674056e+07 9.601918e+07 1.504876e+08 -1.024781e+08
-6.569804e+07 -2.382362e+08 -2.335726e+08 1.802893e+08 -1.639578e+08 -1.886092e+08
-2.184224e+08 7.833438e+07 -4.436437e+07 -1.062058e+08 -5.871268e+07 -5.878169e+07
6.594269e+07 2.206037e+08 6.075705e+07 -1.188466e+08 -2.959522e+07 1.630059e+08
3.825601e+07 1.583745e+08 1.343025e+08 2.118159e+08 -2.786914e+07 1.427536e+08
1.358809e+08 -1.221634e+08 2.329299e+08 -2.309793e+08 -1.487990e+08 -1.759830e+08
2.279412e+07 2.077528e+08 1.034714e+07 2.039996e+08 -2.026851e+08 -1.369357e+08
4.773911e+07 1.392275e+08 2.262656e+08 2.283383e+08 1.215789e+08 -2.001605e+07
-2.067752e+08 1.800970e+08 -4.459649e+07 7.340860e+07 -7.767946e+07 -5.311775e+07
1.138020e+08 1.717981e+08 -7.604724e+07 -2.367018e+08 2.400613e+08 -1.210193e+08
2.388493e+08 1.734536e+08 1.160929e+08 9.860229e+05 2.284877e+08 -5.530087e+07
1.369847e+08 -1.764994e+08 -6.375077e+07 -1.977243e+08 -3.207957e+07 -1.106365e+07
-3.974386e+07 9.389225e+07 2.474826e+07 2.233618e+08 9.055033e+07 -1.230587e+08
-1.539876e+08 1.594854e+08 1.314489e+07 -1.080964e+08 -2.173232e+08 1.528324e+08
-2.026582e+08 -1.386154e+08 2.260390e+08 -1.867819e+08 -1.509092e+08 1.890814e+08
1.527102e+08 -2.016053e+08 1.298318e+08 9.668683e+06 -1.699769e+08 9.288390e+07
-1.735991e+08 -1.039562e+08 1.771524e+08 -9.128273e+07 -8.880829e+07 2.463439e+07
9.408488e+07 1.897521e+08 -7.097151e+06 2.375940e+08 -9.095992e+07 -2.066776e+08
-2.024631e+08 -7.921728e+07 1.329463e+06 1.719062e+08 1.406247e+07 2.215077e+08
-2.036423e+08 -7.007701e+07 3.720846e+07 -4.652156e+06 -1.227573e+08 -1.832074e+07
-1.406341e+08 8.806473e+07 2.196952e+08 1.928207e+08 1.065718e+08 -1.455429e+08
-1.013214e+08 -2.313295e+08 6.507350e+07 -5.517605e+07 1.191381e+06 1.119741e+08
-1.734826e+08 -1.304044e+08 2.234386e+08 1.792176e+07 2.207137e+08 1.210564e+08
1.232830e+08 -5.843173e+07 9.353478e+07 2.411994e+08 -2.788382e+06 -1.321602e+08
8.196603e+07 -5.815506e+07 -5.435299e+07 1.830458e+08 -3.532828e+06 1.115098e+08
1.610717e+08 -6.478120e+06 1.573733e+08 2.479676e+08 1.712177e+08 -4.833464e+07
8.562638e+07 -5.641760e+07 1.517319e+08 -8.059499e+07 -1.155418e+08 -2.582437e+07
6.932797e+07 2.277424e+08 2.306463e+08 -2.044602e+08 -2.419933e+08 -1.407805e+07
1.789640e+08 8.635699e+07 -4.345138e+07 -8.028558e+07 2.319375e+08 -1.329049e+08
-7.593564e+07 -2.059286e+08 -2.401265e+08 8.300312e+07 -2.378987e+08 -1.621208e+08
2.160119e+08 -1.903532e+08 -2.367249e+08 1.875792e+08 -1.415650e+08 -3.529985e+07
1.480231e+08 -3.190181e+07 1.684279e+07 -2.332929e+08 2.104221e+08 2.440775e+07
2.621932e+07 1.157081e+08 1.823003e+08 -1.645485e+08 -7.552109e+07 -7.125181e+07
-1.160061e+08 1.508022e+08 -1.921554e+08 -2.237110e+08 7.546259e+07 1.644780e+08
-6.068292e+07 2.262127e+08 1.386134e+08 -7.178582e+07 -2.357921e+08 -1.309229e+08
1.830588e+08 -1.522573e+08 2.375009e+08 -4.784829e+07 1.962954e+08 -2.091904e+07
-1.787452e+08 -1.426327e+08 9.265266e+06 -2.390876e+08 -8.902413e+07 2.173858e+08
-6.952365e+07 2.196553e+08 1.038534e+06 9.148557e+07 -1.095008e+07 -1.623793e+06
-9.170858e+07 -2.325198e+08 2.418554e+08 4.199341e+07 2.276568e+08 6.286877e+07
2.023743e+07 -2.295646e+08 3.706125e+07 1.392753e+08 -1.331180e+08 1.357088e+08
-1.460365e+08 -1.068086e+08 1.614099e+08 -2.311187e+08 -1.428025e+07 1.393326e+08
2.428255e+08 -2.449883e+08 1.782050e+07 -4.268510e+06 -2.233473e+08 1.016787e+08
2.999130e+07 2.020539e+08 2.392905e+06 -1.906343e+08 -1.077269e+08 -2.136519e+08
-2.226296e+08 -8.983284e+07 -3.989767e+07 -1.057358e+08 2.209763e+07 7.141098e+06
2.799310e+07 -1.597028e+08 6.354304e+07 1.025610e+08 8.954955e+05 1.194320e+08
-1.934060e+08 -9.382817e+07 1.145887e+08 -1.279932e+08 -4.576383e+07 -6.433542e+06
-1.721830e+08 1.811152e+08 -2.396932e+08 -1.299755e+08 -1.096162e+06 8.489228e+06
-1.373165e+08 1.042276e+08 9.983186e+07 -2.181939e+08 -9.123362e+07 7.808121e+07
4.315608e+07 5.853079e+07 5.626766e+06 -3.242437e+07 1.361065e+08 1.746381e+08
2.463942e+08 -1.406605e+08 8.739973e+07 -7.830671e+07 -2.495121e+08 1.228855e+08
-1.439620e+07 2.800613e+07 -2.510666e+07 2.272101e+07 -2.817276e+07 -8.579708e+07
1.037971e+08 -7.235796e+07 6.020581e+07 2.122385e+08 -2.105767e+08 -2.933509e+07
1.135674e+08 2.265537e+08 8.158063e+07 -3.253669e+07 -1.235436e+08 5.008252e+07
-3.485744e+07 4.073348e+07 -2.953993e+07 -3.751581e+07 9.280616e+07 -3.121449e+07
-1.541038e+08 1.045338e+08 1.086849e+08 1.687409e+08 -1.568423e+08 -1.421528e+08
-5.292212e+07 1.435491e+07 -1.560378e+08 1.030848e+08 -2.294799e+08 1.332837e+08
-1.768115e+08 4.816707e+07 2.463697e+07 9.298067e+07 1.792134e+08 -1.084741e+08
6.226707e+07 -2.124724e+08 -4.952616e+07 8.361367e+07 -1.490013e+08 -3.082150e+07
-7.689864e+07 1.971852e+08 3.184963e+07 -2.446552e+08 9.222266e+07 -5.135738e+07
-6.564948e+07 -1.627422e+08 2.080473e+08 2.253572e+08 2.082985e+08 -2.038535e+08
1.035219e+08 3.316616e+06 6.953670e+07 1.649611e+08 1.236108e+08 -4.117708e+07
1.783845e+08 1.198801e+08 -9.083841e+07 -2.097659e+08 -1.619484e+08 -6.372047e+07
-2.694197e+07 1.082988e+08 1.435820e+06 7.668871e+07 1.648620e+08 1.816202e+08
4.461384e+07 -1.756042e+08 2.066846e+08 1.383408e+08 7.025667e+07 -8.141764e+07
1.832494e+08 2.208525e+08 -1.370469e+07 -4.678215e+07 -2.470924e+08 7.927030e+07
2.101998e+08 1.750302e+08 -5.689615e+07 2.228792e+08 -1.756735e+08 1.803083e+08
-4.735973e+07 -1.099304e+07 5.634200e+07 4.541056e+07 1.246065e+07 -2.328270e+07
-1.657801e+08 1.046855e+08 -1.844994e+08 1.554894e+08 -1.608414e+08 1.515996e+08
-1.621808e+08 1.346523e+08 -6.994708e+07 3.128638e+05 2.462791e+08 2.755896e+07
-2.369743e+08 -1.139878e+08 1.374869e+08 8.827561e+07 -9.262030e+07 -1.418025e+08
2.923869e+07 -1.016094e+07 1.580059e+08 2.021632e+08 2.366049e+08 -4.469033e+07
1.495434e+08 6.808923e+07 2.578468e+07 -1.569963e+08 1.140557e+08 -1.343840e+08
-2.096939e+08 1.562013e+08 2.104185e+08 1.691826e+08 1.036881e+08 -9.873277e+07
-2.174362e+08 2.115767e+08 -8.411897e+07 1.485101e+08 -4.473947e+07 -3.684078e+07
-2.275211e+08 1.978017e+08 -2.421859e+08 -6.822302e+07 -1.506331e+08 3.483753e+07
-2.186929e+08 -9.800188e+07 -1.063627e+07 1.273034e+08 -1.616039e+08 -2.266027e+08
1.554785e+08 1.883934e+08 -5.798518e+07 1.467308e+08 -8.294449e+07 1.205566e+08
5.882533e+06 -1.998701e+08 -6.923287e+07 -9.257109e+07 -1.739626e+08 -1.278165e+08
-3.351810e+07 1.779302e+08 1.906982e+08 2.500444e+07 -2.211609e+08 -1.945585e+07
1.378889e+08 5.182912e+07 -2.519098e+07 -2.353816e+08 8.661779e+07 -8.879752e+07
2.117601e+08 -1.212218e+08 -1.151761e+08 -2.222046e+08 -4.082094e+07 3.315758e+07
-2.224899e+07 1.941936e+08 -2.444341e+08 1.574169e+07 -8.579664e+07 2.333641e+08
-2.011492e+08 -1.750647e+08 2.283814e+08 -1.901474e+08 -8.524060e+06 -2.402190e+08
2.474568e+08 4.300383e+07 8.266183e+07 2.918263e+07 1.117900e+08 1.019951e+08
-5.608806e+07 -2.071253e+08 4.196730e+07 9.391631e+07 -2.288385e+08 1.295060e+08
-9.276072e+07 1.074531e+08 1.909370e+08 7.437543e+07 -9.517968e+07 7.746401e+07
2.061478e+08 4.706618e+07 8.941638e+07 2.211640e+08 -8.064321e+07 1.551866e+08
2.351149e+08 -4.515818e+07 1.379843e+08 5.442545e+07 -2.104662e+08 9.908357e+07
-8.114835e+07 1.628661e+07 9.009917e+07 1.882751e+08 -1.274151e+08 2.221139e+07
1.482587e+08 2.266556e+08 9.512709e+07 -8.961915e+07 2.336336e+08 -8.425910e+07
1.205366e+08 5.587138e+07 2.138274e+08 -1.704002e+08 9.160774e+06 -3.000045e+06
-1.074647e+08 -1.018794e+08 9.180215e+07 -2.437075e+08 -1.691531e+08 -9.107913e+07
5.163740e+07 1.207237e+08 -2.470159e+08 1.129320e+08 8.073628e+07 1.240795e+08
-2.076367e+07 8.929045e+07 3.897235e+07 2.198286e+07 -3.102206e+07 1.471011e+08
2.459602e+08 -2.222816e+08 1.327783e+08 1.294145e+08 9.222919e+07 1.558034e+08
-1.315627e+08 1.225470e+08 -1.527551e+08 8.524197e+07 1.559241e+08 -1.000056e+07
7.717762e+07 -1.065695e+08 2.351953e+08 -6.732971e+07 2.240186e+08 2.006569e+08
-1.637148e+08 -2.948172e+07 9.331360e+07 2.373434e+08 1.115292e+08 -5.202030e+07
-1.568176e+08 -2.494013e+08 -2.394959e+08 4.414720e+06 8.430058e+07 2.173682e+08
-2.081825e+08 5.921783e+07 2.231069e+08 2.165425e+08 -2.499039e+08 -6.310702e+07
5.276975e+07 -2.266129e+08 1.122183e+08 -5.601811e+07 6.932650e+07 -5.395856e+07
-2.320693e+08 -1.745195e+07 -1.010671e+08 1.765595e+08 -1.726217e+08 -2.161754e+08
1.179308e+08 -1.831946e+08 -3.986904e+06 3.203407e+07 -1.046905e+08 -1.437042e+08
2.157725e+08 5.606529e+07 1.502903e+08 -1.225476e+08 1.523102e+08 7.654561e+07
-1.369666e+08 1.566577e+08 4.097806e+07 5.394254e+06 -1.677113e+08 6.812542e+07
-1.395565e+08 -1.610695e+07 1.892140e+08 1.287244e+08 -9.293652e+07 -1.038185e+08
2.280285e+08 1.178220e+07 -2.394238e+08 2.235935e+08 -2.041702e+08 -1.303667e+08
1.521778e+08 -9.556008e+07 1.981836e+06 -2.140912e+08 -5.387062e+07 -2.435574e+08
1.923222e+08 1.195269e+08 -1.120853e+08 -1.365231e+08 -2.183917e+08 -3.229815e+07
2.253035e+08 -1.242855e+08 -1.714599e+08 -1.809021e+08 3.586639e+07 1.757479e+08
1.180362e+08 -1.827044e+07 -4.952760e+07 -1.398389e+08 -1.670011e+07 2.152698e+08
-6.862616e+07 -8.625380e+07 2.360796e+08 1.271434e+08 -8.520410e+07 -2.177796e+08
-9.023060e+07 -1.674094e+08 -7.269364e+07 -1.963085e+08 -2.229980e+08 1.849293e+08
0.000000e+00 0.000000e+00 0.000000e+00 0.000000e+00 0.000000e+00 0.000000e+00
2.356529e+08 1.721885e+08 -2.296932e+08 -1.489204e+07 5.398499e+07 -3.747546e+07
0.000000e+00 0.000000e+00 0.000000e+00 0.000000e+00 0.000000e+00 0.000000e+00
0.000000e+00 0.000000e+00 0.000000e+00 0.000000e+00 0.000000e+00 0.000000e+00
0.000000e+00 0.000000e+00 0.000000e+00 0.000000e+00 0.000000e+00 0.000000e+00
-1.516367e+08 -1.346630e+08 1.487069e+08 9.421503e+07 -2.212611e+07 9.859440e+07
-1.762513e+08 5.202278e+07 2.323119e+08 -2.499823e+08 -9.105110e+07 -6.022895e+07
-1.678474e+08 2.123780e+08 1.881338e+08 2.031055e+08 5.678799e+07 -2.888322e+07
-1.824708e+08 -2.183463e+08 -1.322668e+08 -4.454544e+07 -1.531765e+08 -6.943114e+07
-1.059359e+08 2.165541e+08 8.457312e+06 -2.749310e+07 -1.999345e+08 1.897900e+07
1.125522e+07 1.032850e+08 6.202967e+06 -9.401610e+06 1.938224e+08 -8.310440e+06
-9.310076e+07 2.164366e+08 4.226622e+07 1.568480e+08 -6.089642e+07 1.807657e+08
-1.426422e+08 -1.281200e+08 -1.807259e+08 -1.378517e+08 -1.520878e+08 -1.346287e+08
1.189295e+08 -1.124598e+08 -1.563074e+08 1.505418e+08 -1.583791e+08 -2.026663e+08
1.812534e+08 2.190256e+07 1.958733e+08 -1.254008e+07 -1.599888e+08 1.674227e+08
-1.406821e+08 -3.139455e+07 -1.179446e+08 1.651770e+07 -1.529359e+08 -1.328636e+08
1.164892e+08 1.235934e+08 -2.450720e+08 3.385788e+06 -1.790773e+08 -8.284140e+07
-7.354319e+07 2.305548e+06 1.578287e+08 -1.855080e+08 8.166527e+07 -1.291959e+08
-2.478494e+08 1.102637e+08 -1.877414e+08 1.839282e+08 -2.318453e+08 2.840115e+07
6.615476e+07 -2.117971e+08 -9.049606e+07 -2.400629e+08 -5.245445e+07 -2.762694e+07
2.463209e+08 -1.893246e+08 -3.909733e+07 5.559617e+07 1.796830e+08 -2.356171e+08
5.348839e+07 -1.533981e+08 1.992952e+08 -5.826303e+07 -2.322984e+08 1.734342e+08
-1.160627e+07 -2.257265e+07 -4.358820e+07 1.088126e+08 2.366440e+08 1.862516e+08
-7.169758e+07 -5.604706e+07 -1.079080e+08 -8.959592e+05 9.587538e+07 -2.118553e+08
1.225431e+08 2.044101e+08 -1.037637e+08 6.419504e+07 -4.664485e+07 1.952166e+07
-6.273471e+07 -2.429020e+08 -2.318746e+08 -9.853178e+07 -1.432040e+08 5.840414e+07
-2.077405e+08 9.292977e+07 -1.065105e+08 1.331708e+08 -1.580523e+07 -2.869485e+07
-2.360251e+08 2.258424e+08 -1.684786e+08 1.106508e+08 1.416402e+08 -9.268916e+07
1.640102e+08 2.121508e+08 -9.926822e+07 -2.355993e+08 8.862047e+07 -9.482630e+07
-4.339738e+07 1.755186e+08 -2.234448e+08 -2.170109e+08 9.509921e+07 2.083265e+08
-1.198262e+08 2.676080e+07 -1.677490e+08 -2.013546e+08 1.292707e+08 -7.987805e+07
-8.438331e+07 -9.523468e+07 -1.307460e+08 -7.303026e+07 1.140406e+07 -2.241231e+08
-1.252142e+07 2.363102e+08 1.233209e+08 2.487618e+08 -9.012657e+07 7.314496e+07
2.175721e+08 1.731741e+08 2.204674e+08 -6.165939e+07 -1.682617e+08 7.369552e+07
-7.511397e+06 4.763197e+07 8.873246e+06 -1.182045e+08 1.779727e+08 1.896419e+08
1.382811e+07 2.786869e+07 -1.040467e+08 -7.347227e+07 2.495283e+07 -1.617056e+08
1.719306e+08 -9.495324e+07 -1.955898e+08 2.400737e+08 -4.928486e+06 2.349646e+08
-7.733513e+07 -2.429539e+08 -8.865324e+07 -1.438416e+08 3.307119e+06 1.007105e+08
-1.263356e+08 1.292966e+08 2.506729e+07 1.282446e+08 -7.181288e+07 -1.473243e+08
-2.278700e+07 -2.427421e+08 -1.258525e+08 -1.684460e+08 2.477085e+08 -1.291410e+08
-1.280111e+08 1.946311e+08 8.332055e+07 -2.169413e+08 -2.179134e+08 2.000588e+08
-3.520001e+07 -2.302219e+08 -1.095619e+08 -1.358969e+08 1.909421e+08 2.579242e+07
-9.489905e+07 -9.932919e+07 8.407646e+07 -2.233949e+08 2.300069e+08 -1.557197e+08
3.576403e+07 -4.381489e+07 1.791378e+08 2.145307e+08 -1.080817e+08 -2.434586e+08
1.179896e+08 1.630641e+07 -1.176800e+08 -4.144029e+07 -2.151177e+08 -1.260745e+08
-4.591044e+06 5.977394e+07 -1.120777e+08 1.533758e+08 1.342977e+08 2.137763e+08
1.318335e+08 -8.417135e+07 -2.204520e+08 -5.161867e+07 -1.151358e+08 -2.451043e+08
9.184399e+07 -8.986911e+07 1.706260e+08 1.316017e+07 1.350696e+08 -4.411696e+06
1.997938e+07 1.339410e+08 -1.537231e+08 2.010147e+08 8.253413e+06 6.227956e+07
8.552766e+07 8.007268e+07 -3.574774e+07 1.653459e+08 2.024907e+08 2.451818e+08
2.202243e+08 4.522407e+07 -2.020224e+08 -8.424291e+07 -2.156997e+08 1.490701e+08
8.220861e+07 7.614353e+07 -1.739576e+08 -2.128592e+08 -1.531243e+08 -6.287325e+07
-1.699215e+08 1.419396e+07 -1.282812e+08 -2.032193e+08 -2.083677e+08 3.642890e+07
4.134374e+07 9.304378e+07 -6.614288e+07 -1.047032e+08 1.750048e+08 2.249891e+08
-9.373429e+07 -3.613506e+06 -3.657866e+07 -1.126396e+08 2.351587e+08 -1.306352e+08
-1.524297e+08 4.384124e+07 7.435938e+07 2.411617e+08 1.998972e+08 1.764764e+08
1.607134e+08 1.389932e+08 -9.170588e+07 1.806002e+08 7.238784e+07 2.227386e+08
1.181789e+08 -3.116827e+07 1.837030e+08 -9.198396e+07 -1.257840e+08 -1.228346e+08
1.241626e+07 1.550812e+08 2.159715e+08 1.206182e+08 -1.569126e+08 1.735488e+08
8.360806e+07 3.715466e+07 -2.413856e+08 1.755876e+08 1.041337e+08 3.581468e+07
4.608854e+07 1.761346e+08 -8.592040e+07 5.372046e+07 7.606247e+07 1.287668e+07
1.744075e+08 1.367140e+08 1.864667e+08 -2.603536e+07 -7.297936e+07 1.018394e+08
2.465370e+08 9.433330e+07 3.467325e+07 -1.569039e+08 1.336760e+08 9.982887e+07
-2.135718e+08 1.802771e+07 2.369027e+08 8.756477e+06 -4.933205e+07 -1.150859e+07
8.499981e+07 2.310151e+08 -2.111116e+08 -1.266759e+08 8.775975e+07 -1.365820e+08
6.903692e+07 -5.094957e+07 1.388650e+08 -1.929843e+08 1.280479e+08 -7.366666e+07
1.900515e+08 1.786436e+08 1.223643e+08 2.412545e+08 -2.088775e+08 -1.278980e+08
2.030245e+08 -6.465480e+07 -2.111247e+08 -1.408735e+08 -1.561293e+08 1.990573e+08
-2.425780e+08 -1.442453e+08 -1.428510e+08 2.271849e+08 1.151617e+08 1.765014e+07
8.785009e+07 1.547421e+07 2.118330e+08 4.072813e+07 1.233015e+08 2.195275e+08
2.099150e+07 2.360380e+08 -2.007155e+08 3.736735e+07 -8.359790e+07 -1.924851e+08
3.900609e+06 -2.249713e+08 2.007660e+08 -1.879120e+08 -1.363492e+07 9.652826e+07
1.243966e+08 5.702887e+07 -1.044014e+08 1.395051e+08 4.874035e+07 -2.051032e+08
-1.125698e+07 1.543127e+08 4.034304e+06 2.416052e+08 -2.009553e+08 -1.001279e+08
-1.472746e+08 8.287584e+07 1.686302e+08 -1.027266e+08 -2.070103e+08 2.829658e+07
-2.004269e+08 -3.137999e+07 6.255822e+07 1.991333e+08 1.029791e+08 1.200977e+08
3.331183e+07 1.551423e+08 2.328673e+08 -2.751549e+07 1.825070e+08 -3.208908e+07
-2.240960e+08 3.268265e+07 -1.295111e+08 -1.798364e+08 -1.204281e+08 -1.034760e+08
-2.236208e+08 -2.241064e+08 -2.475532e+08 -1.888065e+08 -4.692162e+07 9.548054e+07
-2.153877e+08 -5.718828e+07 2.094453e+07 -2.044064e+08 1.234431e+08 1.834693e+08
9.096762e+07 -1.796616e+08 -7.827954e+07 -5.037374e+07 -1.939545e+08 -7.518592e+07
-1.614699e+08 -9.233167e+07 -1.074077e+08 -8.941931e+07 -2.190623e+08 9.955344e+07
-4.175837e+07 -2.318692e+07 -1.329697e+08 1.042581e+08 -2.428157e+08 -4.681214e+07
1.719389e+07 1.080472e+08 1.820472e+08 -1.792159e+08 2.308830e+08 1.010799e+08
-2.376296e+08 1.696478e+08 -1.649939e+08 -2.858863e+07 -1.320852e+08 -1.075181e+08
1.063463e+08 -9.237467e+07 1.893354e+08 -3.371820e+06 1.245051e+08 -1.133711e+08
-2.936048e+05 2.135524e+07 -2.371621e+08 8.597587e+07 -2.449992e+08 9.752269e+07
-2.150649e+08 6.491619e+07 9.006396e+07 1.785196e+08 2.312988e+08 -1.393490e+08
2.483363e+08 1.662415e+08 -1.875086e+08 5.228614e+07 -8.932135e+06 1.426015e+08
9.730996e+07 -2.015351e+08 -1.084328e+08 -9.776935e+07 2.014657e+08 -2.741808e+07
-1.532789e+08 -2.867155e+07 -9.655703e+07 -1.101462e+08 -2.702752e+07 -1.900589e+08
3.284406e+07 1.097548e+08 -1.810445e+08 -1.620144e+08 2.303256e+08 -1.072287e+08
-2.115082e+07 3.752931e+07 -8.498920e+07 2.263966e+08 1.029865e+07 -1.621999e+08
-2.081342e+08 1.483169e+08 -8.998838e+07 1.861300e+08 1.324642e+08 8.746307e+07
2.369931e+08 6.285798e+07 2.184199e+08 -6.978367e+07 -1.584311e+08 2.300835e+08
-1.055612e+08 -1.334865e+08 2.217835e+08 1.136448e+08 2.421167e+08 -9.339446e+07
1.733336e+08 9.264477e+07 -2.400092e+08 -1.439265e+07 1.965762e+08 -3.198805e+07
-7.104672e+07 -1.854991e+08 -2.091420e+08 2.442304e+08 2.377506e+08 -1.027352e+08
1.148031e+08 1.976319e+07 -2.962891e+07 1.153673e+08 -1.627815e+08 2.216314e+07
-6.552567e+07 1.466899e+08 2.321142e+08 -2.094762e+08 -1.551070e+08 -1.455910e+08
-1.195801e+08 2.388420e+08 -1.302543e+07 1.831870e+08 1.149973e+08 -1.324567e+08
-6.557003e+07 1.124408e+08 -3.228108e+07 1.949235e+08 -8.549910e+07 4.310823e+07
-2.050472e+08 8.648571e+07 -2.041042e+08 1.433989e+08 -2.281019e+08 8.087777e+07
1.334401e+08 -1.046515e+08 2.179117e+08 2.123993e+07 5.529310e+07 1.645388e+08
-7.510066e+07 -4.043535e+07 3.720755e+07 2.063800e+08 -2.756441e+07 -1.649026e+08
4.027710e+07 -2.311119e+07 1.221951e+08 -7.555039e+07 1.020071e+08 -1.101461e+07
8.055595e+07 -8.619700e+07 5.987188e+07 -2.091746e+08 -9.954922e+07 1.060191e+08
-1.580728e+08 1.070640e+07 -2.136780e+08 1.657647e+08 -1.419492e+08 9.098146e+07
-3.999362e+07 -1.312987e+08 1.251156e+08 2.020380e+08 4.868905e+07 -1.670200e+08
1.456292e+08 -1.417968e+08 1.927309e+08 -5.563212e+07 2.408296e+08 -8.676661e+07
6.450171e+07 -2.337493e+08 2.062702e+08 1.565190e+08 -2.367246e+08 1.256261e+08
-1.963226e+08 1.895740e+08 -2.183150e+08 -1.217064e+08 2.124931e+08 -1.068080e+08
2.228587e+08 2.224255e+08 -1.883455e+08 -1.639539e+08 -1.399194e+08 2.471538e+08
-5.394814e+07 -1.588008e+08 1.059939e+08 -1.386674e+08 -2.489914e+08 2.336625e+07
-9.327968e+06 2.052827e+07 -8.750133e+07 -2.959562e+07 5.040373e+07 -1.361742e+08
-1.609357e+08 -7.167400e+06 -2.462399e+07 2.235367e+07 -2.361988e+08 -9.075407e+06
2.221555e+07 -1.703297e+08 -9.857995e+07 2.455039e+08 8.234784e+07 -5.969522e+07
-8.620798e+07 -4.869451e+07 -2.041781e+08 2.491252e+08 2.417863e+08 4.642744e+07
5.679098e+07 1.380783e+08 1.523600e+07 2.104973e+06 1.841666e+08 -9.544442e+07
2.120477e+08 -1.780817e+08 5.915912e+07 1.593048e+08 2.271626e+08 -6.661230e+07
4.263375e+07 3.440954e+07 8.146405e+07 2.405067e+08 -1.762894e+07 7.840217e+07
1.131565e+08 1.732654e+08 -1.280508e+08 -1.353248e+08 4.220180e+07 2.088184e+08
-1.372287e+08 1.555773e+08 -1.347111e+08 2.416104e+08 1.065057e+08 8.541509e+07
-1.315855e+08 1.523527e+08 -1.782281e+08 1.046685e+08 2.194561e+07 -1.298600e+08
-1.060829e+08 1.259904e+08 -9.140448e+07 2.772997e+05 -8.348643e+07 5.856348e+07
-2.200779e+08 -1.622792e+08 -1.365254e+08 -1.704798e+07 5.060772e+06 1.314070e+08
-8.517651e+07 -2.596095e+07 -1.649038e+07 -4.208007e+07 -5.126964e+07 2.422047e+08
4.715891e+07 -1.141957e+08 -6.079971e+06 1.211599e+08 1.158222e+08 1.455913e+08
7.209034e+07 -5.857649e+07 1.663555e+08 -1.046834e+08 4.381955e+07 2.358757e+08
-2.290374e+07 -3.326957e+07 -1.884637e+08 -1.783301e+08 2.467518e+08 6.868368e+07
8.557377e+07 1.300715e+08 -2.431035e+08 1.560259e+08 -2.408193e+08 1.797670e+07
1.715357e+08 -8.799679e+07 1.127143e+08 -3.755583e+07 -3.969890e+07 1.928840e+08
1.989245e+08 -1.712006e+08 1.371409e+08 -1.220574e+08 -1.941259e+08 7.635999e+07
-3.164253e+07 1.008956e+07 -4.022633e+07 -8.158143e+07 2.361419e+08 9.792280e+07
-1.503396e+07 1.057666e+08 4.265527e+07 -4.827160e+07 -2.295333e+08 1.574804e+08
-1.897753e+08 -2.343312e+08 -9.487319e+07 -2.149819e+08 -1.860375e+08 -4.176039e+07
2.020786e+08 1.590440e+08 -2.051743e+08 2.048522e+08 6.161804e+07 1.899065e+08
-1.357687e+08 2.977159e+07 -5.435488e+07 -9.315938e+06 -4.085526e+07 4.919081e+07
2.146007e+08 -4.086320e+07 -1.528624e+07 -1.189379e+08 2.203170e+08 -1.438694e+08
1.319023e+08 7.482882e+07 -1.304637e+08 -9.974619e+07 -2.012435e+08 -2.130945e+08
1.436310e+08 -1.296002e+08 -2.285570e+08 -1.367041e+08 2.032974e+08 -1.066606e+08
-2.107741e+08 1.469640e+08 1.409465e+08 -2.368829e+08 2.200734e+08 1.197775e+08
-4.441807e+07 -1.727617e+08 1.026948e+08 9.380674e+07 9.586260e+07 1.922529e+08
2.237432e+08 -5.721291e+07 1.116075e+08 1.156060e+08 1.790305e+08 2.018560e+08
-8.144099e+07 -2.482751e+08 -1.307231e+08 -1.741725e+08 2.446665e+08 1.097294e+08
4.554070e+07 2.400815e+08 1.749285e+08 1.014066e+08 -1.539760e+08 1.612716e+07
-6.163525e+07 -1.143446e+08 -1.378273e+08 -1.028345e+07 2.075525e+08 1.724840e+08
1.981986e+08 -1.053287e+07 6.681788e+07 -1.511287e+08 2.405047e+08 2.281801e+08
1.134527e+08 8.168779e+07 2.634570e+06 2.351048e+08 -1.682226e+08 5.210229e+07
-2.019109e+07 9.158787e+07 5.631700e+07 2.427797e+08 2.420446e+08 1.746036e+08
-2.237015e+08 -2.437318e+07 -1.902944e+08 1.823653e+08 -1.589076e+08 -7.166935e+07
1.830683e+08 -1.556458e+08 -6.481404e+06 -8.201541e+07 -4.688840e+07 4.104465e+07
-9.888106e+06 -1.176656e+08 2.237229e+06 -2.259956e+08 1.431402e+08 -2.131607e+08
1.378839e+08 -1.130507e+08 1.860057e+08 5.489345e+07 -1.678867e+08 1.797148e+08
-2.437116e+08 -1.469972e+08 9.028553e+07 1.091159e+08 -2.035273e+08 -1.301477e+08
-1.137213e+08 -1.161578e+08 -1.558422e+08 4.954424e+07 -5.430505e+06 1.893627e+08
-1.422061e+08 -1.876822e+08 -8.206784e+07 2.347349e+08 -2.231326e+08 -6.259577e+07
1.503077e+08 1.017911e+08 9.462837e+07 -9.873148e+07 8.051445e+07 -2.197153e+08
6.302789e+07 -7.680741e+07 -1.922624e+08 1.889730e+08 -9.481136e+07 1.197931e+08
-2.231540e+08 -5.959126e+07 1.108796e+08 2.045640e+08 -2.333958e+08 -2.157119e+08
-9.933824e+06 -2.098310e+08 -2.019230e+08 -6.390893e+07 2.262606e+08 5.004197e+07
1.747154e+08 -2.463447e+08 -1.369019e+08 2.272926e+08 -1.509377e+08 -2.409893e+08
1.522247e+08 -1.520949e+08 -2.173840e+08 -3.825118e+07 -1.486761e+08 -9.534031e+07
-4.510217e+07 2.285322e+07 -2.415938e+08 2.259374e+08 2.288385e+08 7.624559e+07
-1.042203e+08 -1.038430e+08 6.577553e+07 8.319828e+07 -6.129809e+07 -1.751521e+08
-7.204496e+07 1.209548e+08 -1.267714e+08 5.888428e+07 -1.107614e+08 -6.633640e+07
2.371081e+08 2.260832e+08 1.677408e+08 -1.054865e+08 5.359129e+07 -1.229928e+08
1.663197e+08 -6.617032e+07 1.731598e+08 1.569468e+08 -1.134317e+06 5.595423e+07
-3.425997e+07 -4.904269e+07 2.071864e+08 -1.353118e+08 -1.302974e+08 1.958709e+08
2.626100e+07 1.734878e+08 2.289986e+08 -1.386138e+08 1.215735e+08 2.307581e+08
9.626466e+07 1.909787e+08 2.477216e+07 1.047703e+08 1.394648e+08 -1.461343e+08
-9.621240e+07 -1.828768e+08 -7.403087e+07 7.226741e+07 -1.834320e+08 1.181673e+08
1.879410e+08 -1.659873e+07 -2.068669e+08 1.753174e+08 -1.076841e+08 -2.323080e+08
3.801017e+07 -1.929256e+08 -9.504187e+07 -1.630046e+07 -1.844438e+08 2.436626e+08
-1.756483e+08 1.378280e+08 -9.331946e+07 -2.475938e+07 -6.485221e+07 3.665712e+07
2.239018e+08 -1.460673e+08 2.278093e+08 6.418814e+07 -9.744498e+07 1.004091e+07
6.330264e+07 8.740409e+07 1.884168e+08 1.075715e+07 -5.230613e+07 -2.866602e+07
-5.785747e+07 -1.648656e+08 5.900995e+07 1.277020e+08 -1.347708e+08 6.452818e+06
-1.963501e+08 1.032681e+07 -3.702943e+07 -9.846048e+07 -3.503618e+07 -4.861625e+07
-1.170521e+07 -9.899342e+07 -7.499016e+07 -2.018594e+08 1.000338e+08 -1.751074e+08
1.875005e+08 2.319829e+08 7.169305e+07 -5.008550e+07 1.802589e+08 1.268249e+08
1.131299e+08 9.815404e+07 4.562932e+07 -1.835990e+08 1.615153e+08 1.764914e+08
-1.712173e+08 9.097755e+07 2.349669e+08 -9.678344e+07 -1.437723e+08 7.730630e+07
-2.491721e+08 1.825103e+08 2.341885e+08 9.393885e+07 -5.305777e+07 -4.667282e+07
2.266673e+07 -1.541378e+08 -1.097717e+07 -3.603923e+07 -2.177451e+07 8.251676e+07
1.806544e+08 -5.272555e+06 2.408317e+08 1.782485e+08 -9.325716e+07 5.332653e+07
8.407226e+07 -2.406751e+08 4.145541e+07 2.237646e+07 9.290851e+07 2.182053e+08
-2.396765e+08 1.851946e+08 -1.166147e+08 2.106918e+08 -1.877595e+08 -1.922096e+08
2.227241e+08 1.478252e+08 2.053397e+08 -8.466205e+07 -2.138943e+08 2.036320e+08
-6.503301e+07 7.352350e+06 -1.799524e+08 -3.986686e+06 2.461663e+07 1.682470e+07
-1.249942e+08 -1.304038e+08 -2.425738e+08 2.008404e+07 -1.992912e+07 1.494360e+08
2.480157e+08 -4.066112e+07 -4.702217e+07 -2.128843e+08 1.304273e+08 -2.290699e+08
-2.313311e+08 1.685549e+08 -1.552659e+07 5.747988e+06 1.882797e+08 -1.016923e+08
-1.501046e+08 2.000737e+08 -2.305206e+08 7.391683e+07 -1.759924e+08 1.338726e+08
1.666019e+08 1.528761e+08 -1.094197e+08 -1.466553e+08 -1.253276e+08 1.229892e+08
-2.307245e+08 -1.953807e+08 1.574146e+08 2.255016e+08 -1.902159e+06 6.025462e+06
-1.870677e+08 -2.175805e+08 -2.208984e+08 -1.006560e+08 2.488787e+08 1.547832e+08
-7.228007e+06 1.383150e+08 2.043135e+08 8.331810e+07 -1.147625e+08 2.076651e+08
1.476788e+08 1.551214e+08 2.098152e+08 -1.905001e+08 -8.234122e+07 -1.769197e+08
2.337136e+08 -1.447120e+08 5.848206e+07 -2.497542e+08 6.759485e+07 3.002851e+07
-1.216106e+08 -5.307982e+07 1.153841e+08 -1.727141e+08 -4.284639e+07 -2.114793e+08
1.364117e+08 1.510672e+08 -2.736599e+07 -9.186304e+06 1.712472e+08 -1.885325e+08
-1.016303e+08 1.533514e+08 5.181250e+07 -1.001598e+07 2.191592e+08 8.462779e+07
-2.013697e+08 -1.128597e+08 1.433924e+08 2.056739e+08 1.629089e+08 -6.659646e+07
-4.581637e+07 6.293059e+07 -1.725123e+07 -2.163860e+08 -1.644670e+08 -1.451925e+08
-1.093857e+08 2.047375e+08 2.077026e+08 1.403573e+08 -6.657269e+07 -2.261739e+08
2.058410e+08 1.134510e+08 1.040587e+08 -6.443634e+07 4.118047e+07 1.849841e+07
-1.192987e+08 2.305320e+08 1.379248e+06 -8.909894e+07 -1.154276e+07 -9.322608e+07
-3.755360e+07 -1.676279e+08 1.441612e+08 -1.734250e+08 2.864557e+07 -1.929364e+08
-3.379041e+07 -4.394228e+07 1.338346e+08 -6.298841e+07 -3.497482e+07 2.140974e+08
1.417983e+08 -1.278980e+08 -2.178747e+07 1.517349e+08 4.906012e+05 1.082498e+08
-4.348122e+07 -1.759375e+08 -1.934212e+08 1.311505e+08 2.047507e+08 -1.108047e+08
-9.644648e+07 1.927553e+08 -1.496667e+07 -6.035528e+07 5.332699e+07 8.565873e+07
-2.043441e+08 1.543413e+08 -7.481820e+07 -2.308982e+08 -2.254147e+08 4.409530e+07
2.388152e+08 -2.161900e+08 -7.182063e+07 -1.583920e+08 1.435968e+08 1.650774e+08
-1.194170e+08 -2.339427e+08 1.370055e+08 -8.108588e+07 1.559914e+08 2.739506e+07
-6.857975e+07 2.081091e+08 3.195931e+07 -1.493115e+07 2.499914e+08 4.999013e+07
5.741608e+07 2.272067e+08 -2.581120e+07 5.428502e+07 -2.252734e+08 -2.191862e+06
-2.159486e+08 1.335028e+08 2.047987e+08 1.248176e+08 1.501918e+08 -1.429489e+08
-7.239356e+07 -1.444964e+08 4.785376e+07 2.183668e+08 1.233012e+08 1.740296e+08
-1.826814e+08 -2.449737e+08 -5.040236e+06 5.010699e+07 -1.672523e+08 1.522587e+08
-1.861388e+08 -2.045547e+08 -2.294943e+08 -1.481700e+08 -1.612202e+08 -1.272361e+08
5.549613e+07 -9.663065e+07 2.185844e+08 1.231175e+08 -5.451892e+06 2.400058e+08
1.959795e+06 1.763039e+08 5.299125e+07 3.220241e+07 1.022448e+08 3.318619e+07
-1.904699e+08 -1.109951e+07 1.385616e+08 4.889634e+07 -1.219429e+08 2.075769e+08
7.768091e+07 1.165573e+08 -2.230985e+08 8.973970e+07 1.551235e+08 2.225962e+08
-2.380755e+08 1.570703e+08 1.814656e+08 1.153637e+08 1.786507e+08 -4.076168e+07
-4.829122e+07 -1.580353e+08 8.509232e+06 1.764152e+08 -1.534045e+08 1.922421e+08
3.136159e+07 6.675720e+07 5.651771e+07 2.450425e+08 1.888445e+08 9.649494e+07
3.450962e+07 -1.426566e+08 3.577174e+07 -1.069879e+08 -2.052964e+08 1.807835e+08
2.496288e+08 2.144214e+07 2.215189e+08 -8.555857e+07 2.285639e+08 2.300704e+08
2.199439e+07 5.910548e+07 2.044913e+08 1.376018e+08 -8.935362e+07 -6.827242e+07
2.271524e+08 -3.290545e+07 1.215230e+08 6.049606e+07 -1.984801e+07 -1.162943e+08
-5.642110e+07 -1.171957e+08 -1.840668e+08 -4.823175e+07 2.203082e+08 -3.589446e+07
1.162950e+08 -1.395809e+08 -2.482765e+08 -2.277379e+08 2.052604e+08 -1.717726e+08
-6.831653e+07 2.304069e+08 -1.690363e+08 -1.597718e+08 1.066315e+07 2.590781e+07
-4.500839e+07 -7.940389e+07 1.354436e+07 6.365854e+07 1.102258e+08 1.647375e+08
2.113705e+07 1.177910e+08 2.369479e+08 -2.779896e+07 -4.985868e+07 2.300604e+08
-2.442921e+08 -2.050573e+07 -2.424285e+08 -4.380820e+07 1.901538e+08 -1.090869e+07
4.349372e+07 -5.117901e+06 1.583877e+08 1.405452e+08 2.459286e+08 2.599186e+07
-6.703835e+07 2.178867e+07 2.432594e+08 2.572163e+06 2.161524e+08 2.609489e+07
-3.632547e+07 -1.289395e+08 -1.118066e+08 3.503867e+07 1.484742e+08 -9.218575e+07
-1.759323e+08 1.784742e+08 -1.700944e+08 -1.887512e+08 -1.567022e+08 1.472498e+08
5.403512e+07 -2.218735e+08 2.250285e+08 2.432319e+08 -8.858284e+06 -1.969467e+08
-8.165518e+07 -6.329996e+07 2.275878e+08 -2.490191e+08 5.289996e+07 -1.937175e+08
1.941182e+08 -1.346763e+08 -2.283588e+08 1.494673e+08 2.242699e+08 2.202580e+08
-2.060465e+08 2.258309e+08 3.813895e+07 -1.241920e+06 1.027541e+08 -1.763396e+08
-2.219732e+08 -8.772083e+06 1.986236e+08 -1.542175e+08 -1.295992e+08 2.288329e+08
2.476393e+08 -8.542078e+07 -2.223406e+07 -9.779265e+07 -2.094938e+08 2.494239e+08
9.313239e+07 1.577451e+07 -6.926585e+07 2.360980e+08 6.571220e+07 1.297757e+08
8.960446e+07 -2.319320e+08 -7.835929e+07 9.899675e+07 1.790926e+08 4.067837e+07
1.059561e+07 1.676649e+08 2.232502e+08 2.090979e+08 2.394365e+08 7.667141e+06
-2.340573e+08 1.897040e+08 -1.331232e+08 -5.635406e+07 -4.807325e+07 -1.887878e+08
-1.358925e+08 1.498658e+08 2.209812e+08 1.297918e+08 9.941221e+06 -1.785732e+07
-2.305013e+08 -1.398266e+08 -2.091140e+08 -1.390197e+07 1.503658e+08 2.349808e+08
7.724935e+07 -4.613798e+07 -1.099047e+08 -1.575564e+07 -2.364422e+08 -2.150910e+08
4.554111e+07 -1.859775e+08 -1.241292e+08 -1.688966e+08 6.001595e+07 -6.630475e+07
-1.335502e+08 -2.018514e+08 -4.042210e+07 -1.658112e+08 1.614915e+08 -2.109470e+08
-1.568186e+08 -1.131142e+07 -8.123097e+07 1.631301e+08 2.012514e+07 -1.884374e+08
2.430824e+08 4.049730e+07 -1.851830e+08 -7.292105e+07 2.181305e+08 2.260920e+08
-2.485894e+08 -9.278905e+07 -1.573320e+08 2.145968e+08 6.906715e+07 3.428219e+06
1.705186e+08 -1.082171e+08 1.073442e+08 1.658302e+08 -2.068273e+08 -9.659240e+07
6.666925e+07 -3.145124e+07 3.596253e+07 1.741136e+08 1.122892e+08 -2.069581e+08
-5.002727e+07 8.559031e+07 -3.007888e+07 -1.553847e+08 -1.504740e+08 1.945912e+08
1.161328e+08 -1.751051e+08 2.445386e+08 1.051699e+08 4.300315e+06 -5.042832e+07
-1.429763e+08 -1.338138e+08 -2.058535e+08 -2.183862e+08 1.755265e+08 -5.116625e+07
-8.765418e+07 5.546522e+06 -4.716413e+07 -1.183574e+08 1.525014e+08 2.328829e+08
-2.370610e+08 -2.289837e+08 -2.257089e+08 1.048623e+08 -2.142679e+08 -7.264103e+07
4.519400e+07 8.744240e+07 -1.168854e+08 -1.364059e+08 1.642653e+08 1.389138e+08
2.448650e+08 -6.264792e+07 -5.810672e+07 -1.377087e+08 -1.669508e+08 -1.378770e+08
1.965727e+08 -4.033548e+07 7.091406e+06 1.793004e+08 -1.263579e+08 2.159216e+08
6.585419e+07 2.069785e+08 1.562692e+08 1.421220e+08 5.854242e+07 1.704446e+08
-7.476053e+07 -2.762621e+07 1.321871e+08 -1.606106e+08 -2.101678e+08 2.309241e+08
1.143795e+08 4.171128e+07 -1.460277e+08 -1.033579e+08 2.477755e+08 1.970100e+08
7.934276e+07 -1.696868e+08 2.472214e+08 1.552848e+08 -1.694451e+08 -2.945320e+07
1.895096e+08 9.050428e+07 9.731207e+07 -1.782002e+08 -2.364323e+08 -1.367111e+08
9.681507e+07 -2.942618e+07 -2.362813e+08 4.581150e+06 -7.720252e+06 -2.503645e+07
-1.940529e+08 -1.351573e+08 -1.193832e+08 -3.179088e+07 2.234252e+08 -1.349088e+07
2.255764e+08 1.207111e+08 -1.722745e+08 -1.128916e+08 -1.147231e+08 2.064286e+08
-1.381415e+08 -3.797069e+07 2.896552e+07 1.588371e+06 -1.541818e+08 5.202549e+07
-4.447238e+06 -2.389719e+08 1.437409e+08 7.770925e+07 -9.581687e+07 1.941212e+08
-1.740024e+08 -3.436861e+07 1.475060e+08 1.564760e+08 -7.006136e+07 -1.848686e+08
1.413269e+08 2.255190e+08 -5.385836e+07 -7.099621e+07 -9.655724e+06 3.862419e+06
1.325052e+08 -4.802938e+07 -1.843322e+08 1.307135e+08 1.061777e+08 2.131402e+08
-2.186224e+08 -2.191397e+08 1.409946e+06 -1.877391e+08 1.436153e+08 9.609160e+07
-1.195378e+08 1.996842e+08 1.099740e+08 6.955008e+07 -2.229280e+08 2.205051e+08
-1.925238e+08 1.890564e+08 6.108572e+07 2.758082e+06 1.115057e+07 8.701239e+07
1.600957e+07 -1.126954e+08 -1.016788e+08 2.453689e+08 -8.468720e+07 1.457699e+08
-9.767062e+07 -2.371570e+08 -2.282265e+07 1.466040e+08 -2.478505e+07 -2.603525e+07
1.390082e+08 2.841249e+07 -1.124022e+08 5.389651e+07 1.764414e+08 2.327532e+08
-1.980964e+08 9.192531e+07 -9.554891e+07 -2.665655e+07 1.361991e+08 -1.817308e+07
-9.844831e+07 -1.444791e+08 1.496402e+08 -2.090674e+08 1.329644e+08 1.007819e+08
2.149651e+08 2.119443e+08 1.196647e+08 -9.276610e+07 2.436178e+08 -8.340110e+07
-1.571866e+08 -2.120812e+08 -9.929553e+07 1.511075e+07 4.044522e+07 9.683299e+07
-2.498042e+08 -1.978579e+07 1.398854e+08 1.834306e+08 -1.804298e+08 1.254087e+08
2.492623e+08 1.973290e+08 4.189162e+06 1.125380e+08 -1.553323e+08 4.422878e+07
-1.973381e+08 -1.198763e+08 -1.219712e+08 -1.972588e+07 2.331233e+08 -1.438796e+08
2.079210e+08 6.130264e+06 -2.390407e+07 1.924916e+08 -1.646361e+08 -1.359691e+08
-4.271493e+07 -8.811616e+07 -1.157572e+08 -9.367213e+07 1.022517e+08 -2.122910e+08
-1.820370e+08 -1.769032e+07 1.111209e+08 1.137613e+08 1.398727e+08 -1.672044e+07
-1.048638e+08 -6.721218e+07 -1.414054e+08 -9.010028e+06 7.283082e+07 4.003778e+07
-1.063020e+08 1.147156e+08 -8.538154e+07 -8.921650e+07 1.775640e+08 2.009383e+08
-7.966367e+06 1.099690e+08 2.165863e+08 -2.071034e+08 1.291263e+08 -3.168974e+07
1.078392e+08 -2.486471e+08 1.449204e+08 1.002729e+08 -2.459837e+08 7.780720e+07
9.796014e+07 2.275678e+08 2.739181e+07 1.371150e+08 -8.968762e+07 4.001559e+07
1.674002e+08 -8.734547e+07 -7.884908e+07 1.195830e+08 1.455290e+08 7.932785e+07
8.186328e+07 1.656145e+07 -1.914193e+08 -1.735166e+08 4.642987e+07 -8.851566e+06
1.440731e+08 -6.899163e+07 -1.762583e+07 -4.290379e+07 7.078256e+07 -6.493272e+06
5.279624e+07 -1.020664e+07 6.753344e+07 -1.467209e+08 -2.072222e+08 3.609345e+07
-1.617966e+08 8.742584e+07 6.800534e+07 -3.521371e+07 2.037467e+08 7.093161e+07
-4.552855e+07 -2.407884e+08 2.127478e+08 -1.737917e+08 -8.601420e+07 -8.579186e+07
-9.937648e+07 -4.246383e+07 1.505622e+08 1.339966e+08 -2.075734e+08 9.390553e+07
1.426264e+08 1.764945e+08 -1.571034e+08 -1.045542e+08 2.029414e+08 2.030507e+07
-6.752208e+06 4.217540e+07 -1.537624e+08 -2.167630e+08 -2.433752e+08 -1.180100e+08
1.681191e+08 1.703174e+08 -1.896226e+08 2.061649e+08 1.114443e+08 6.470393e+07
1.397547e+08 5.949708e+07 1.407870e+08 -3.144837e+07 -1.707509e+08 1.642648e+08
6.691738e+07 -2.181152e+08 -2.077418e+08 -2.494011e+08 -8.992595e+07 6.111646e+07
4.553502e+07 -2.114166e+08 1.576368e+08 1.290200e+08 4.536987e+07 -5.840891e+07
2.751294e+07 4.624354e+07 5.696182e+07 8.832815e+07 -2.329586e+08 -1.242267e+08
2.151256e+08 1.007524e+08 -9.883442e+07 -1.770332e+08 -2.131897e+08 -2.005283e+08
-2.254498e+08 1.248908e+08 -4.727487e+07 -2.217101e+08 2.986376e+07 -2.962931e+07
-3.411355e+07 -6.574012e+07 6.141461e+07 1.233263e+08 -1.750966e+07 -3.239269e+07
1.590620e+08 2.153019e+08 2.300722e+08 1.402615e+08 -1.723499e+08 -1.665577e+08
-2.532687e+07 7.960554e+07 1.619389e+08 -1.484763e+08 1.628724e+08 1.326431e+08
1.274878e+08 1.840683e+08 1.912459e+08 7.850615e+07 -1.713277e+08 -2.786370e+07
1.299483e+08 2.136888e+07 -3.746591e+07 -1.930157e+08 1.943925e+08 3.025891e+07
-1.624845e+08 -2.472552e+08 3.253533e+07 4.318605e+07 -1.901703e+08 1.554159e+08
1.698161e+08 -2.139333e+08 -2.000344e+08 1.113400e+07 -1.009080e+07 -1.171195e+08
1.733801e+07 -1.756985e+08 9.982684e+07 -2.301312e+08 -1.810577e+08 6.970391e+07
2.211853e+08 8.389198e+07 -1.038562e+08 1.352462e+08 1.912605e+08 -1.856048e+08
7.678692e+07 1.703911e+08 -1.327743e+08 2.165195e+08 1.523980e+08 -2.118081e+08
-1.576550e+08 -1.864859e+07 7.565952e+07 -1.479061e+08 1.904612e+08 1.528849e+08
-1.941810e+08 -1.891821e+08 -1.505532e+08 6.941247e+07 -2.367454e+08 -1.997491e+08
2.057245e+07 -2.072310e+07 1.495681e+08 -1.884740e+08 8.142127e+07 -6.185136e+07
1.760703e+08 -2.225355e+08 -1.464687e+08 -2.054590e+08 2.075136e+08 -1.493587e+08
-5.505385e+07 -1.940317e+08 1.274812e+07 -6.667371e+06 1.903587e+08 2.283053e+08
-3.998025e+07 -9.824038e+07 -6.840010e+07 -2.069455e+08 2.394781e+08 1.775288e+08
9.640406e+07 -1.023991e+08 -1.386067e+08 3.420849e+06 1.430653e+08 1.845203e+08
9.739898e+07 -9.208792e+07 2.160912e+08 4.741425e+07 -4.083131e+07 -1.921482e+08
-2.447331e+08 2.794630e+07 -9.270371e+07 -1.610206e+08 -1.023033e+08 -1.230317e+08
-1.106303e+08 5.934441e+07 5.826367e+05 -4.453649e+07 -8.950311e+06 1.347327e+08
3.356715e+07 -2.328728e+08 -2.179676e+08 1.719608e+08 1.680552e+08 -2.178957e+08
9.585077e+07 -1.414212e+08 8.655741e+07 1.232844e+08 1.973871e+08 2.474126e+08
-1.440738e+08 -5.678095e+07 -1.939264e+08 2.327405e+08 5.725343e+07 1.228651e+08
-1.842411e+08 -1.148594e+08 -4.953132e+07 1.751354e+08 8.980534e+07 3.982363e+07
-1.294970e+08 5.790615e+07 1.685401e+07 -5.152126e+07 1.056522e+08 -8.924558e+07
1.903354e+08 2.385215e+08 -1.079214e+08 2.252440e+08 -6.203689e+07 -2.095799e+08
-1.435696e+08 -1.909845e+08 -5.227650e+07 2.301091e+08 -1.211970e+08 -1.035869e+08
-7.074197e+07 -5.047308e+07 7.162508e+07 -9.543967e+07 -1.534287e+08 9.020217e+07
-1.329017e+07 -1.830619e+08 1.064041e+08 -5.923218e+07 -1.849374e+08 2.144613e+06
-1.652311e+08 -3.021022e+07 1.322095e+08 1.883979e+08 1.893052e+08 -3.604304e+07
-2.271293e+08 8.404617e+07 1.184910e+08 -2.071467e+08 -4.599865e+07 1.638702e+08
2.299758e+08 -1.812905e+08 1.951919e+08 9.045174e+07 -7.566132e+07 -1.059276e+08
-1.798974e+08 -2.423716e+08 2.256524e+08 2.255305e+08 5.554145e+07 2.025776e+08
2.353577e+08 2.116086e+08 -2.020834e+08 -9.157211e+07 -1.391069e+07 -5.665772e+07
-1.239461e+08 2.237509e+08 1.108540e+08 -9.201183e+07 1.641860e+08 -7.873543e+07
1.598113e+08 1.384931e+08 -6.904210e+07 -1.787961e+08 1.934792e+08 7.904191e+07
-2.183518e+08 -9.774707e+07 -1.829399e+08 -1.901452e+08 -1.288087e+08 -1.117370e+08
2.253197e+08 -1.842458e+08 -4.686236e+07 5.494687e+06 2.154771e+08 2.310796e+07
6.542643e+06 -1.146514e+08 8.754283e+07 -2.355275e+08 -7.296930e+07 1.361950e+08
1.694068e+08 -1.026498e+08 -1.680841e+08 -1.307494e+06 1.391663e+08 -9.759375e+06
-2.178683e+08 -1.340256e+08 6.218872e+07 2.381728e+08 -1.054762e+08 2.058622e+08
-4.513303e+07 -6.406406e+07 -1.955762e+08 -1.109521e+08 1.238325e+08 -2.623188e+07
-8.222221e+07 1.739205e+08 3.437723e+07 -1.866437e+08 2.163818e+08 1.046507e+08
2.154885e+08 1.007627e+08 -1.804073e+08 1.628322e+07 -2.157074e+08 7.966162e+07
1.937608e+08 -4.843743e+07 2.451515e+08 1.653568e+08 -2.120559e+08 7.845217e+06
-1.998663e+08 -2.023879e+08 1.219392e+08 1.669802e+08 -3.655832e+07 4.778949e+07
-1.696083e+08 -2.289660e+08 -8.007349e+07 1.140820e+08 -1.885591e+08 -7.187200e+07
-1.158963e+08 8.266200e+07 1.933351e+08 5.648562e+07 -1.490403e+08 7.133321e+07
1.842378e+08 -1.337860e+08 -1.907861e+08 1.452165e+08 1.239552e+08 1.673513e+08
-2.444639e+08 3.750841e+07 1.920050e+08 -4.323779e+07 1.663282e+07 2.379699e+07
-2.414516e+08 1.474728e+06 -3.735059e+06 2.149796e+08 2.272683e+08 4.964538e+07
2.943722e+07 2.064611e+08 -5.918453e+07 -1.982592e+06 -9.369750e+07 2.277182e+08
1.015212e+08 7.654073e+07 -8.476158e+06 8.492193e+07 -2.570440e+07 1.803725e+08
7.817658e+07 -2.397045e+08 1.071844e+08 9.538041e+07 1.005459e+07 1.921953e+08
4.440045e+07 -1.436085e+08 -2.037516e+08 2.002298e+08 -1.392008e+08 2.068475e+08
-2.350467e+08 -1.760468e+08 -2.828196e+07 1.377440e+07 -5.798326e+07 8.901454e+07
-4.242254e+07 1.194799e+08 -5.010782e+07 -4.863065e+07 -1.838692e+08 -1.215699e+08
3.472209e+07 1.918141e+08 1.251728e+07 6.446253e+07 -2.459892e+08 -4.293964e+07
6.667279e+07 1.128147e+08 -4.304719e+07 1.805376e+07 -2.250659e+08 1.774135e+07
1.104892e+08 -2.384111e+08 6.325489e+07 -1.288614e+08 -2.179608e+08 -1.615034e+08
2.349590e+08 1.062763e+08 3.904436e+07 2.270122e+08 -2.445835e+08 -1.181941e+08
-1.442824e+08 -7.964957e+07 1.739335e+08 1.491333e+08 1.891866e+08 -8.134695e+07
-1.432575e+08 1.777552e+08 -1.613311e+08 -1.921735e+08 -1.466507e+08 7.849852e+07
2.174331e+08 2.253910e+08 -2.033318e+08 5.455663e+07 1.834918e+08 4.695265e+06
-5.573240e+07 -4.884964e+07 -7.919429e+07 -1.310154e+08 2.390193e+08 1.136959e+07
-1.915789e+08 -1.969081e+08 -2.390363e+08 -9.879203e+06 2.570713e+06 6.456777e+07
2.099661e+08 -6.093233e+07 4.870992e+07 1.332218e+08 -5.296451e+07 8.988818e+07
-8.247427e+07 -4.941410e+07 2.010517e+08 1.729846e+08 -5.711609e+07 -1.982781e+08
-8.346599e+07 8.484812e+07 -1.260216e+08 5.091447e+07 -1.261853e+08 1.472709e+08
1.153559e+08 9.807993e+07 -1.528439e+08 1.132964e+08 2.435596e+08 -1.931749e+08
-2.334202e+08 1.650984e+08 1.190290e+08 1.487352e+08 1.242714e+08 -1.814902e+08
-4.551083e+07 -1.157383e+07 1.693416e+08 -2.026369e+08 -8.053636e+07 -4.351318e+07
1.452192e+08 -1.428780e+08 -5.291475e+07 1.506807e+08 -2.175833e+08 -1.083037e+08
-7.409996e+07 4.886995e+07 -1.496215e+08 6.144166e+07 -1.409524e+08 -3.507110e+07
-1.169687e+08 -1.630572e+08 -2.030617e+08 5.600618e+07 -1.032516e+08 -7.062856e+07
-1.705996e+08 -1.829870e+08 -2.119795e+08 -1.111469e+08 4.474668e+07 -1.963047e+08
-1.156012e+08 -1.160998e+08 -2.855682e+07 4.138102e+06 -1.219758e+08 -2.122786e+08
1.311009e+08 -2.040586e+08 1.744947e+08 9.755251e+07 2.442456e+08 -1.825404e+08
1.038520e+08 1.149687e+08 -1.497147e+08 2.000751e+08 2.001195e+08 2.173299e+08
-2.239527e+08 1.960619e+08 -1.304908e+08 1.008938e+08 5.784244e+07 5.400604e+07
-1.398060e+08 -1.791238e+08 -1.176227e+08 1.992471e+08 -4.225746e+07 3.188188e+07
-2.446349e+07 2.044812e+08 1.539901e+08 -2.325419e+07 -2.520019e+07 1.823014e+08
-1.889731e+08 6.938432e+07 7.176049e+07 7.598910e+07 -1.376155e+08 -1.069074e+08
1.386563e+08 -3.984818e+07 1.633466e+08 1.594875e+08 2.479857e+08 -8.756969e+06
7.802674e+05 5.486554e+07 1.758245e+08 1.998111e+08 -2.390435e+08 3.440422e+07
2.260326e+08 -1.343327e+08 -1.068349e+08 -1.093075e+08 -1.716102e+08 2.303811e+08
3.148657e+07 2.062316e+08 -1.218926e+07 1.234938e+08 -2.395556e+08 2.489291e+08
-1.924646e+08 1.532115e+08 1.950753e+08 1.238849e+08 1.809442e+08 1.744412e+08
2.214703e+08 -1.100922e+08 1.380799e+08 1.690690e+08 1.202534e+07 2.098149e+08
2.055606e+08 -5.718569e+07 3.102615e+07 2.440772e+08 -2.101863e+08 -1.027711e+08
1.192575e+08 5.874345e+07 -8.504771e+07 2.200244e+08 -3.366270e+07 6.440055e+07
-2.211809e+08 1.958444e+07 1.958530e+08 -1.936293e+08 -1.152287e+08 -1.285331e+08
-1.250891e+07 8.402309e+07 2.130111e+08 2.052576e+07 1.098476e+08 -1.789805e+08
-9.609856e+07 -1.046861e+08 -3.707747e+07 2.191945e+08 -5.172975e+07 -1.628021e+08
-1.301624e+08 9.684578e+06 -6.538224e+07 1.317397e+08 2.459671e+08 1.193380e+08
1.551620e+07 -1.354097e+08 -1.250364e+08 1.814530e+08 1.947589e+08 2.297345e+08
-4.589436e+06 -1.490463e+08 -7.691390e+07 -2.068963e+08 3.524522e+07 3.769471e+07
-3.257478e+07 -2.035222e+08 -1.614872e+08 -1.957270e+08 -2.226803e+08 6.759226e+06
2.138415e+07 -2.262350e+08 -1.722566e+08 1.968998e+08 -4.741304e+07 -1.295434e+08
1.380734e+08 8.892365e+07 7.479655e+07 1.708876e+08 2.124560e+07 1.810461e+08
3.748620e+07 -2.115273e+08 1.945214e+07 8.599967e+06 2.413250e+08 1.392093e+08
1.325739e+08 -2.360517e+08 9.217674e+07 1.640879e+08 1.510772e+08 -3.695945e+07
-4.201231e+07 1.308427e+08 1.226123e+07 -1.278233e+08 -3.700776e+07 -1.603393e+08
-1.968270e+08 6.219328e+07 7.853884e+07 8.361160e+07 -7.897073e+07 1.327395e+07
1.997662e+08 -1.306317e+08 1.989924e+08 2.390585e+08 -6.769635e+07 -2.048484e+07
1.270506e+07 -2.348101e+08 3.888869e+07 2.436824e+08 -1.344326e+08 2.191508e+08
-4.122348e+07 8.198994e+07 1.940395e+07 -1.736091e+08 -2.497876e+08 -1.603769e+08
-1.226103e+08 2.145939e+07 -1.510184e+08 2.257281e+08 -2.498798e+07 7.195539e+06
1.181135e+07 5.082201e+07 -2.488539e+08 -5.141668e+07 5.204268e+07 -2.236295e+08
-8.005311e+07 2.033548e+07 -2.254093e+08 2.327408e+08 -7.903658e+07 6.530151e+07
7.960898e+07 -1.775101e+07 1.819540e+08 -1.494030e+08 -2.034524e+08 6.236861e+07
1.619574e+08 1.472895e+08 -2.002094e+08 -2.477452e+06 -1.498666e+08 -1.417794e+08
4.776082e+07 2.141219e+08 -2.488514e+08 -9.298339e+07 -1.556182e+08 6.237928e+07
-3.151098e+07 -2.017158e+08 -1.510554e+08 2.477936e+08 1.589791e+08 -2.373557e+08
1.536148e+08 -2.361013e+08 -5.552832e+05 -1.354796e+08 -5.279263e+07 -1.263804e+08
5.949846e+05 -9.862647e+07 1.803125e+08 -1.861497e+08 1.924285e+08 1.318768e+08
2.092921e+08 3.706142e+07 1.111195e+08 1.874375e+08 2.184913e+08 -5.951570e+07
3.915494e+07 -1.358909e+08 2.577032e+07 8.969134e+06 2.390034e+08 -2.179585e+08
1.998131e+08 7.084975e+07 1.214064e+08 -1.164602e+07 -1.280413e+07 9.502809e+07
1.904471e+08 -5.222120e+07 -1.005152e+08 -1.706676e+08 -1.636838e+08 4.127422e+06
1.100161e+07 -2.410040e+07 2.045480e+08 1.462910e+08 -1.954812e+08 -2.477961e+08
9.070804e+07 -3.700873e+07 -1.648837e+08 -2.358738e+08 1.421889e+08 -4.884936e+06
-5.115260e+07 -6.688855e+07 4.840138e+07 1.396451e+08 2.046073e+08 1.337625e+08
-2.278619e+08 -6.465742e+07 -9.455151e+07 4.379235e+07 1.438876e+08 -2.061114e+08
-1.185769e+08 1.915998e+08 -2.164460e+08 -1.169949e+08 -1.689950e+08 -1.703643e+08
1.903848e+08 -5.104546e+07 -1.559876e+08 -6.843778e+07 -5.992999e+07 -1.739359e+08
5.742380e+07 -2.147125e+08 -1.949066e+08 -9.846928e+06 -1.734953e+08 -1.044745e+08
4.540830e+06 1.757660e+08 -1.336174e+08 4.245360e+07 1.637633e+08 1.894752e+08
-8.293096e+07 -2.101936e+07 2.395825e+06 -1.547182e+08 1.932858e+06 -4.905647e+07
-2.231512e+08 -1.683136e+08 -1.877060e+08 -2.416501e+06 5.810509e+07 -9.445094e+07
-4.716562e+07 -1.330816e+08 -2.163607e+07 5.224020e+07 5.333137e+07 2.325888e+08
-1.514592e+07 -9.869416e+07 4.163109e+07 9.330505e+07 4.953365e+07 -5.666258e+07
1.946438e+08 -4.783750e+07 9.847762e+07 2.754828e+07 9.424032e+07 -6.124376e+07
1.207489e+07 -4.728459e+07 -9.874966e+07 -2.428723e+08 1.759274e+08 4.424294e+05
1.783798e+08 -1.940585e+08 2.083107e+08 -7.541912e+06 7.834908e+07 -1.785498e+08
-1.778367e+08 -1.921210e+08 -2.423838e+08 -2.419268e+08 -6.827604e+07 -1.463365e+08
1.196877e+08 1.984493e+08 -2.195504e+08 1.583416e+08 2.480014e+08 2.113551e+08
1.845254e+08 2.457470e+08 -6.731635e+07 2.175166e+08 6.999285e+06 1.822164e+08
1.944322e+08 -2.122747e+08 1.408354e+08 -1.988983e+08 -1.694650e+08 1.184070e+08
-1.665470e+08 -6.823297e+07 -1.478173e+08 1.621079e+08 2.265381e+08 -1.665169e+08
-1.587560e+07 3.951026e+07 1.054383e+08 8.373096e+07 1.621599e+07 -1.330189e+08
7.024559e+07 2.008190e+08 2.311527e+08 1.987863e+08 -6.987720e+07 -1.105359e+08
1.158695e+08 -6.757211e+07 -1.015160e+08 2.204912e+08 3.345842e+07 -5.151232e+07
-1.222999e+08 -4.719047e+07 2.019082e+08 -2.313778e+08 -9.251690e+07 1.068230e+08
-4.222099e+07 1.805000e+08 -2.147349e+08 5.056732e+07 1.105328e+08 -8.225718e+07
1.218037e+08 -2.164129e+07 -6.177677e+07 -1.227254e+07 -3.504947e+07 9.050227e+07
-6.658794e+07 -2.211434e+08 2.099691e+07 -1.754313e+08 4.158009e+07 -7.801133e+07
-1.296530e+08 -1.663309e+07 5.975212e+07 -1.175922e+08 -8.671170e+07 -6.941524e+07
2.136908e+08 1.599719e+08 1.633561e+08 2.366846e+08 -8.960369e+07 -2.287015e+06
1.558314e+08 -2.110595e+08 9.344245e+07 9.569754e+07 1.911711e+08 4.193148e+07
-2.785718e+07 1.358957e+08 1.539246e+08 1.034105e+08 1.603522e+07 1.415805e+08
2.484015e+08 1.739389e+08 2.234666e+08 1.418858e+08 -3.449696e+07 -5.934590e+07
-1.958109e+08 -2.181820e+08 1.812164e+08 -2.479759e+08 -1.799658e+08 -1.511195e+08
2.333746e+08 1.194088e+08 2.162672e+07 -1.936868e+08 -1.276471e+07 1.453262e+07
1.668354e+07 1.319101e+08 -2.342696e+08 1.141348e+08 3.422806e+07 -1.402124e+07
2.871446e+07 2.491416e+08 -4.669220e+07 -1.677592e+08 2.623272e+07 -1.405487e+08
1.910871e+08 1.427336e+08 1.485871e+08 -5.105571e+07 -1.352973e+08 -1.706047e+08
-1.062694e+08 8.977324e+07 -1.664967e+07 -9.339062e+07 2.202883e+08 -1.298954e+08
3.587409e+07 1.087337e+08 -3.028880e+06 1.936375e+08 1.040004e+08 1.609645e+08
1.452260e+08 1.664823e+08 -1.840916e+08 2.464707e+08 3.061928e+07 -1.710364e+08
-1.800606e+08 -1.850308e+08 1.459229e+08 -2.416381e+08 1.349690e+08 1.060737e+08
-1.156278e+08 -2.273800e+08 -1.041965e+08 2.270401e+08 2.002395e+08 5.046804e+06
8.056604e+07 -1.804920e+08 -4.941182e+07 1.838363e+08 -5.993199e+07 1.134190e+08
1.898366e+08 -1.918422e+08 -2.012980e+07 -3.504501e+07 -1.634122e+07 2.086855e+08
8.652805e+06 -1.542356e+08 -6.246769e+06 8.251947e+07 2.432002e+08 1.432862e+08
9.129583e+07 -3.099682e+07 -1.441203e+08 -1.498320e+08 -6.746141e+07 9.334650e+07
-7.894131e+07 1.687777e+08 4.915041e+06 1.011349e+07 -1.463593e+08 9.707634e+07
6.535521e+07 -6.229438e+07 -2.089946e+08 1.825601e+08 -1.812272e+08 -2.870033e+07
1.124121e+08 -9.672636e+07 -1.965163e+08 -1.456972e+08 1.387547e+07 2.059973e+08
1.205555e+08 4.148214e+07 -1.042608e+08 -4.029127e+07 6.669796e+07 -1.547884e+08
1.925272e+08 -6.933980e+06 -6.749705e+07 -2.148867e+08 2.277335e+08 -1.186170e+08
-9.832161e+07 -1.811662e+08 -2.120842e+08 -1.760770e+08 -1.645009e+08 -1.539556e+07
-9.748001e+07 1.123005e+08 4.222950e+07 -2.265622e+08 1.138642e+08 2.088935e+08
1.478583e+08 1.266838e+08 -5.260036e+07 -1.272212e+08 -7.177165e+07 -6.882003e+07
1.315386e+08 -7.323395e+06 -7.079474e+07 -2.282576e+08 -2.350111e+07 6.439124e+07
1.039314e+08 -3.262110e+07 -2.475214e+08 -4.932856e+07 -2.445109e+08 7.259391e+07
1.152283e+08 1.960398e+08 6.752362e+07 3.182584e+06 -2.019864e+08 7.644506e+07
2.180112e+08 1.972984e+08 1.915398e+08 1.191349e+08 1.201869e+08 -2.248300e+08
2.973642e+07 -1.433875e+08 7.257241e+07 -9.534267e+07 2.017928e+08 1.043661e+08
8.074379e+07 5.260207e+06 1.805507e+08 -1.724545e+07 -6.072290e+07 -1.084907e+08
1.300448e+08 -1.391868e+08 -1.732249e+08 -5.044292e+07 -1.257957e+08 -2.402110e+08
5.377704e+07 2.050005e+08 3.422531e+07 -1.499777e+08 -2.263847e+07 1.112628e+08
4.904421e+07 5.285135e+07 -6.383110e+07 -1.247770e+08 8.208372e+06 1.308598e+08
1.801932e+08 2.288131e+08 2.158974e+08 6.515625e+07 -2.416878e+08 -1.175008e+07
-6.279573e+07 6.790030e+06 1.474669e+08 5.965403e+07 1.130957e+08 -1.724174e+08
-2.690280e+06 1.619127e+08 1.790735e+08 -1.704530e+08 1.023047e+08 -9.756860e+07
-9.563152e+07 1.082842e+08 6.477155e+07 1.350617e+08 -2.362753e+08 3.392237e+07
1.256065e+08 -1.304007e+07 -1.274247e+08 4.246334e+07 6.505847e+07 -2.137212e+08
-2.218438e+08 1.839239e+08 -6.989484e+07 1.175583e+08 2.411337e+08 2.184496e+08
4.160789e+07 1.956490e+08 2.346948e+08 1.652120e+08 -1.404092e+08 -2.406674e+08
8.645445e+07 -2.484966e+08 -2.444404e+08 -5.740939e+07 9.618698e+07 -1.308361e+08
-1.484818e+08 1.015230e+08 3.580884e+07 7.129469e+07 -4.491053e+07 -4.176403e+07
9.121440e+06 -2.185283e+08 -1.770563e+08 1.549052e+07 -8.626922e+07 -1.908432e+08
-1.343385e+08 -1.927727e+07 -1.986553e+08 8.863860e+07 2.284041e+08 -4.823449e+07
9.119808e+07 1.712165e+08 -1.033760e+08 -1.790169e+08 5.580490e+07 -1.355130e+08
1.882644e+08 1.893525e+07 -5.883535e+05 9.697544e+07 8.040251e+07 -6.310097e+07
-2.349760e+06 -4.382430e+05 -1.742322e+08 2.113949e+08 -2.181346e+08 -2.485091e+08
2.424079e+07 -1.549567e+08 -8.449346e+07 -2.050722e+08 -1.834783e+08 1.583938e+08
-7.699852e+07 -9.483074e+07 7.998795e+07 1.910188e+08 2.018565e+08 2.455800e+08
2.373417e+08 3.203742e+06 1.511656e+08 1.438527e+08 -1.680666e+08 1.501629e+08
-1.358106e+08 -9.445679e+07 -3.789835e+07 -2.262861e+08 5.761472e+07 -8.269509e+07
2.221586e+08 1.003901e+08 -2.349247e+08 -5.414031e+07 -1.892907e+08 1.057309e+08
-3.956269e+07 -7.598838e+07 1.501793e+07 -3.208081e+07 -5.527580e+07 -4.199898e+07
-1.005391e+08 1.813476e+08 -1.990215e+08 -1.377231e+08 1.620565e+08 1.372024e+08
9.057184e+07 1.894860e+08 1.565612e+08 -1.643808e+08 8.057949e+07 1.920192e+08
-1.490348e+05 -2.292531e+08 1.621917e+08 1.015654e+07 7.199799e+07 1.672613e+07
-2.310480e+08 7.580609e+07 1.571419e+08 -1.573467e+08 -6.461678e+07 8.509245e+07
6.457953e+07 5.791985e+07 1.610187e+08 -1.370385e+08 5.053728e+07 2.411656e+08
-2.326443e+08 -3.534262e+07 -7.924323e+07 -2.793332e+07 9.788143e+07 1.548518e+08
-2.230035e+07 1.946623e+08 1.605123e+08 2.382685e+08 1.596433e+08 9.785858e+07
-4.184816e+05 9.740147e+07 -4.059037e+07 2.073213e+08 2.744118e+07 9.316288e+07
-6.900476e+07 1.801497e+08 1.756468e+08 1.527358e+08 1.848713e+08 2.193727e+08
2.165926e+08 1.622766e+08 2.445646e+08 -2.127485e+08 2.033381e+07 1.603786e+08
1.203916e+08 1.451812e+08 -8.513954e+07 1.202595e+08 -1.426321e+08 -1.312525e+08
2.224446e+08 -1.480113e+08 5.698195e+07 -2.147625e+08 7.112070e+07 -2.239051e+08
1.431940e+08 2.490794e+08 -1.135452e+08 5.922582e+06 1.871879e+08 2.656764e+07
1.992788e+08 -2.896936e+07 -1.821583e+08 1.948988e+08 -1.225296e+08 -1.429281e+08
-6.443434e+07 -1.416246e+08 -2.405646e+08 -2.428950e+08 5.098020e+07 1.986847e+08
-5.614677e+07 -3.245109e+07 2.226028e+08 1.719114e+08 4.966468e+07 5.552517e+07
-7.692715e+07 -1.069517e+08 -1.738220e+08 -1.434121e+06 2.949305e+07 9.060949e+07
9.447269e+07 -1.667428e+08 -6.501619e+06 -9.374977e+07 -5.007731e+06 -2.299449e+08
-1.304990e+08 2.206778e+08 -2.320978e+08 2.437249e+08 4.972331e+06 6.346037e+07
1.309386e+08 -2.198120e+08 1.662659e+08 -3.069721e+07 -4.671450e+07 2.076062e+08
1.947115e+08 -3.829844e+07 -1.307759e+07 2.885568e+06 1.339965e+08 -1.376028e+08
-2.403908e+08 -1.628135e+08 2.334721e+08 1.544317e+08 2.351201e+08 1.574679e+08
-7.146959e+07 8.368568e+07 2.180416e+08 2.029277e+08 -1.660757e+08 -7.764494e+07
5.740462e+07 -1.575914e+08 5.245203e+07 2.176472e+08 9.267011e+07 -4.948094e+05
1.314354e+08 1.509695e+08 2.343274e+08 1.282752e+08 -1.643197e+08 1.893573e+08
-8.888998e+07 -7.347776e+07 1.965033e+08 4.830094e+07 -1.165998e+08 2.952203e+07
-1.614673e+08 2.245017e+07 1.926883e+08 -5.873980e+07 -1.639881e+08 -1.442833e+07
-1.732136e+08 1.349292e+08 -1.073596e+08 1.124995e+07 1.237653e+07 -3.046083e+07
-4.668939e+07 -1.682150e+08 -1.551059e+08 -2.674210e+06 1.007506e+08 -1.576459e+07
-5.526776e+07 -5.313642e+07 -1.800747e+08 1.859473e+08 -1.896018e+08 8.288722e+07
1.870656e+08 1.052593e+08 9.858001e+07 -2.041528e+08 -1.067035e+08 1.478388e+08
-1.077356e+08 2.117307e+08 2.183970e+08 3.187181e+07 1.357356e+08 2.190150e+08
1.323249e+08 -1.396298e+08 -8.920118e+07 -1.968710e+08 2.337009e+07 1.030141e+08
9.908547e+07 1.664928e+08 -6.356273e+07 1.447024e+08 -6.040471e+07 -1.034977e+08
-1.126402e+08 -1.964981e+08 -1.022154e+08 -1.742174e+08 1.551385e+08 1.390325e+08
-1.421165e+08 -1.101712e+08 -1.444307e+08 2.436975e+08 2.349748e+08 -1.434646e+08
1.751588e+07 6.780458e+07 -2.009567e+08 -1.694891e+08 1.044092e+08 1.373437e+08
-8.184981e+07 1.663317e+07 5.021459e+07 1.791650e+08 2.483885e+08 1.836206e+08
-2.030885e+08 -2.455816e+08 -1.756453e+08 1.722038e+08 -2.238216e+08 -2.468938e+07
4.804569e+07 8.520057e+07 -1.717183e+08 1.186050e+08 -1.106763e+07 -1.461297e+08
1.188034e+08 -5.324037e+07 -1.238099e+08 -1.413503e+08 -4.146982e+07 -1.733812e+08
-6.104586e+07 1.355800e+08 -9.387803e+07 -2.085242e+08 1.354313e+08 3.596889e+07
1.092016e+08 -2.707425e+07 2.240194e+08 -2.011644e+08 1.740187e+08 -1.796658e+08
2.378898e+08 -1.052590e+08 4.639101e+07 -1.910858e+07 -1.948981e+08 -5.888017e+07
-6.493174e+07 1.446247e+08 -6.479236e+07 -2.001051e+08 1.274598e+08 8.900134e+07
-9.583638e+07 8.224129e+07 1.824352e+08 2.365605e+08 -2.364548e+08 -1.621418e+08
1.226330e+08 5.831667e+07 1.403592e+08 1.738539e+06 1.408392e+08 -1.491788e+08
-2.686866e+07 -1.133925e+07 -1.500642e+08 1.312739e+08 -1.042332e+08 5.440086e+07
2.095517e+08 -2.070090e+08 1.476714e+08 -1.905577e+07 3.480844e+07 3.031469e+07
-2.021224e+08 8.553634e+07 -1.815062e+08 1.082451e+08 -1.814110e+08 2.481258e+07
1.324962e+08 -1.832294e+08 1.545471e+08 1.286091e+08 -1.897626e+08 1.313318e+08
-4.347281e+07 -1.138745e+08 -2.299789e+08 1.290178e+08 -1.077964e+08 -5.171265e+07
-2.985750e+07 -1.992365e+08 -1.892866e+08 -2.277626e+08 1.484153e+08 -1.773735e+08
-2.014063e+08 2.082685e+08 -1.802312e+08 1.304803e+08 -2.414195e+08 -1.116606e+08
-2.276847e+08 -1.878214e+08 -6.412099e+07 5.306285e+07 1.041411e+08 1.768521e+08
-1.266000e+08 1.083914e+08 1.734475e+08 -2.363914e+08 -5.924260e+07 2.209411e+08
1.265792e+08 5.711474e+07 6.259375e+07 -1.333959e+08 -2.022598e+08 6.878047e+07
-1.200144e+05 -2.025064e+08 -2.289281e+08 3.431118e+07 2.494386e+08 -2.449370e+08
1.282762e+08 7.133642e+07 -1.291426e+08 -1.856942e+08 -2.118726e+08 -2.943625e+07
1.365185e+08 4.557051e+07 4.021952e+07 2.355296e+08 -1.667463e+08 1.320171e+08
2.213939e+07 -3.519306e+07 1.555634e+08 7.158266e+07 -9.188380e+07 2.292530e+08
1.848925e+08 1.773624e+06 -1.497707e+08 1.771667e+08 5.522376e+07 5.485357e+07
1.703223e+08 -7.486631e+07 2.228045e+08 -1.657584e+08 -2.332912e+08 3.765579e+07
7.662031e+06 1.980312e+08 -1.382396e+08 1.371717e+08 -5.086026e+07 1.071080e+08
-1.890561e+08 -3.264227e+07 -2.064141e+08 -2.389294e+08 2.255523e+08 1.208812e+08
1.050984e+08 -9.577386e+07 1.703158e+08 -1.498113e+08 1.070131e+08 -1.550729e+08
-1.245864e+08 1.500390e+08 -7.601771e+07 1.405543e+08 -2.289814e+08 -3.852133e+07
2.356444e+07 2.101647e+08 -1.161232e+08 -1.368155e+08 1.046830e+08 -2.045352e+08
-3.455721e+07 -2.087797e+08 2.386255e+08 2.003503e+08 2.338487e+08 1.780074e+08
-2.475860e+08 -1.065424e+08 -9.872533e+06 7.942815e+07 -9.757561e+07 2.153047e+07
-4.338327e+07 -1.705846e+08 -2.366674e+08 -9.361203e+07 3.258252e+07 -5.175712e+07
2.186025e+07 2.404671e+08 1.562798e+08 4.231075e+06 1.492348e+08 1.901081e+08
6.726025e+07 -1.477751e+08 -7.635152e+07 1.461906e+08 -1.431715e+08 1.119229e+08
-1.449021e+08 1.328859e+08 -2.214196e+08 -2.399540e+08 2.161328e+08 1.394089e+08
-1.086305e+08 1.657157e+08 -1.681589e+08 -2.026288e+08 5.210718e+07 -2.354708e+08
-2.142811e+08 1.399155e+08 -2.220073e+08 1.456600e+08 6.141619e+07 1.860291e+08
-9.444488e+07 1.115843e+08 1.031042e+08 -3.464670e+07 6.543814e+07 1.396138e+08
1.908663e+07 -1.808324e+07 -3.198504e+07 5.190061e+07 2.356488e+08 -7.586169e+07
4.352649e+07 9.382926e+07 -1.726154e+08 -1.074677e+08 2.385267e+08 1.221375e+08
-1.826878e+08 -3.689861e+07 -4.582190e+07 3.350489e+07 3.568796e+06 2.272119e+08
6.889647e+07 1.809419e+08 6.047215e+07 1.664170e+08 -1.026005e+08 1.371193e+08
-8.691593e+07 -1.388555e+08 -2.414464e+08 -8.697605e+07 -8.970686e+07 3.509210e+07
-1.566040e+08 -1.009164e+08 1.270274e+08 -6.178154e+07 -1.841076e+08 -1.194988e+08
1.417874e+08 -1.535818e+08 -1.013907e+08 -2.167143e+08 -2.283443e+08 -1.254623e+08
4.554612e+07 1.557341e+08 -2.100225e+08 1.842835e+08 -1.043590e+08 2.812321e+07
8.245595e+07 1.515505e+08 -1.623249e+08 2.026400e+08 2.449021e+08 2.298453e+08
3.839722e+07 -1.778888e+08 -1.009442e+08 -1.326789e+08 2.215647e+08 -1.770330e+08
1.348448e+08 -1.955972e+08 -3.867182e+07 -4.834025e+07 -1.943907e+08 -1.928139e+08
-1.354968e+08 2.172262e+08 -1.388243e+08 9.430167e+06 1.214157e+08 -9.554567e+07
2.105089e+08 -6.237758e+07 2.274526e+08 7.674371e+07 2.422599e+08 -2.068411e+08
-1.502407e+08 7.945890e+07 -1.448681e+08 -8.844207e+07 7.930091e+07 -1.120552e+08
1.436207e+08 7.368208e+07 1.066232e+08 -1.841724e+08 7.997758e+07 -1.633590e+08
1.313189e+08 2.425444e+08 -9.431367e+07 -7.742639e+07 1.690481e+08 -1.824693e+08
1.877105e+08 3.064067e+07 -1.240848e+08 1.112686e+08 9.419078e+07 -1.329903e+08
-4.844783e+07 -1.709134e+08 2.105347e+08 -7.755304e+07 9.629702e+07 1.430782e+08
-5.193365e+07 -2.479234e+08 -2.472807e+08 -1.221606e+07 -1.105474e+08 -1.553893e+08
2.921186e+07 -6.740837e+07 2.223376e+08 1.759138e+07 -1.258300e+08 2.990461e+07
-1.697457e+08 7.653234e+07 -2.287421e+08 -1.465333e+08 6.883038e+07 4.545809e+07
-1.140529e+08 7.341703e+07 -4.276874e+07 -1.911883e+08 1.781453e+08 -4.836106e+07
-1.151325e+08 -1.254944e+07 1.248284e+08 -1.357440e+08 -2.151374e+08 1.439885e+08
-2.498496e+08 9.030148e+06 1.155971e+08 -1.771901e+08 1.834758e+08 -1.409420e+08
7.303108e+07 4.284965e+07 6.829855e+07 4.770189e+07 2.439414e+08 1.043757e+07
1.577293e+08 -2.447123e+08 6.946198e+07 3.725334e+07 2.334403e+08 2.062170e+07
2.258897e+08 7.460009e+07 -2.938906e+07 1.197325e+08 -1.016076e+08 2.122709e+08
8.827475e+06 -7.015987e+07 2.145004e+07 2.364072e+08 1.696458e+08 -2.422649e+08
2.293719e+08 2.263194e+08 -1.076525e+08 -8.834560e+07 1.808227e+07 1.776172e+08
-6.234079e+07 1.330945e+07 -2.421876e+08 -1.318371e+08 -8.160432e+07 1.712100e+07
7.001829e+07 2.357514e+08 -1.220685e+08 6.630770e+07 -2.244474e+08 -1.176751e+08
-4.962512e+07 -8.990770e+07 5.360958e+07 1.751892e+07 -2.109541e+08 -1.174157e+08
1.655076e+08 3.984600e+07 -1.414215e+08 6.915055e+07 -1.910742e+08 5.008880e+07
1.350218e+08 1.821456e+08 5.595124e+07 2.695779e+07 5.897015e+07 -3.460209e+07
-1.555633e+08 1.083428e+07 1.413847e+08 2.211727e+08 -1.627618e+08 -2.405317e+08
3.921731e+07 2.065521e+08 -2.088557e+08 -7.295689e+07 1.063143e+08 -7.388670e+07
2.317388e+08 -1.318139e+08 1.942071e+08 1.692348e+08 1.914363e+08 3.351166e+07
-8.164118e+07 -7.769908e+07 -4.351691e+07 -2.364003e+08 1.171714e+08 -2.207219e+08
-9.792756e+07 -5.335199e+07 -9.450026e+07 9.226251e+07 -2.386346e+08 2.043300e+08
-1.504058e+08 4.801463e+06 2.264242e+08 1.642417e+08 6.336303e+07 -1.798290e+06
-1.096317e+08 3.547852e+07 1.179496e+08 1.398046e+08 6.916241e+07 -1.697443e+08
7.884115e+07 7.643210e+07 1.395361e+08 -1.142146e+08 6.741641e+07 2.295481e+08
-6.788563e+07 -1.509246e+08 1.453413e+08 8.058894e+07 -5.618063e+07 1.958246e+08
-1.774780e+08 -1.876417e+08 -2.451139e+08 1.150298e+08 2.428924e+08 -1.738757e+08
2.171649e+08 6.338131e+07 2.431520e+08 -2.425095e+08 -5.103809e+07 1.241990e+08
1.790283e+08 -2.051587e+08 2.383525e+08 1.263114e+08 2.099061e+08 -5.316733e+07
-1.179115e+08 -5.740179e+07 6.181297e+07 1.475224e+07 -6.658016e+07 8.043625e+06
-1.900844e+08 1.116171e+08 -8.369795e+07 4.662840e+07 1.845196e+08 2.074869e+08
-1.375787e+08 1.238378e+08 -2.427448e+07 4.018859e+07 1.790002e+08 -3.899605e+07
-1.061648e+08 -4.519387e+07 -2.067646e+08 -2.472911e+08 4.276966e+07 1.957515e+08
-2.057033e+08 1.553175e+08 2.154541e+08 -1.597056e+08 -2.273542e+08 -1.101735e+08
-7.006363e+07 7.554517e+07 -1.411477e+08 1.036963e+08 2.380396e+08 1.545712e+08
-7.029450e+07 1.793925e+08 -2.493468e+08 2.028907e+08 1.692804e+08 -8.226187e+07
-2.488478e+08 -1.359192e+08 1.480869e+07 1.155969e+08 7.664717e+06 -2.312806e+08
8.684146e+07 1.092607e+08 -7.603159e+07 3.636601e+07 2.302405e+08 1.794223e+08
9.005258e+06 -2.019506e+08 4.275537e+07 1.514393e+08 -1.969366e+06 9.663916e+07
-2.676247e+07 -2.211727e+08 -1.518527e+08 1.793634e+08 2.416070e+08 -1.689493e+08
-8.454449e+07 -5.905703e+05 2.616406e+07 2.438039e+08 1.206476e+08 1.170903e+08
1.486619e+07 3.518922e+07 2.422398e+08 -6.273601e+07 1.761237e+08 2.204130e+08
-2.040882e+08 2.248978e+08 -9.322741e+07 1.081609e+08 1.165810e+08 1.143530e+08
1.896103e+07 -1.325052e+08 -9.602494e+07 2.416291e+08 -1.806428e+06 -2.488219e+08
-1.421411e+08 3.405359e+06 2.124958e+08 -1.125224e+08 -2.498648e+08 -9.925953e+07
-9.835081e+07 1.511219e+08 9.272078e+07 -9.346062e+07 -3.129741e+07 4.327289e+07
9.424396e+07 4.140116e+07 5.906778e+06 -6.296884e+07 -2.100742e+08 8.976896e+07
-2.280233e+08 -1.558639e+08 -1.530043e+07 -2.255144e+08 8.526524e+07 2.503529e+07
1.873962e+08 1.729250e+08 -2.196182e+08 -1.560212e+08 -2.258348e+08 -2.354689e+08
3.289904e+07 1.896898e+07 -1.718660e+08 8.241350e+07 2.439709e+08 -1.315924e+08
-4.184534e+07 -2.344660e+08 -1.083174e+08 -1.291910e+06 -6.814733e+07 -2.105875e+08
5.927102e+07 -2.113859e+08 2.073141e+08 1.242338e+08 -1.648274e+08 4.430741e+07
1.476567e+08 -1.910474e+07 1.673420e+08 -3.315869e+06 -6.928677e+07 3.227545e+06
1.668299e+08 -2.466437e+08 1.789848e+08 5.080342e+07 1.641787e+08 -8.146374e+07
-1.465471e+08 1.662911e+07 -2.291782e+08 2.446007e+08 -2.098979e+08 2.392795e+08
-1.489975e+08 -4.148497e+07 -1.117982e+08 2.378447e+08 -2.253884e+08 3.937263e+07
2.453620e+08 1.865324e+08 -2.285076e+08 -1.483311e+08 -1.220461e+08 -2.095546e+08
6.498842e+07 -1.583974e+08 -1.129551e+08 1.515644e+08 -1.803180e+08 -2.300233e+08
-9.480379e+07 -9.345425e+07 4.528001e+07 -1.921482e+08 1.861704e+08 2.367712e+08
3.058423e+07 1.013042e+08 -6.663619e+07 -4.804866e+07 9.025724e+07 -1.246021e+08
1.927489e+08 -2.680522e+07 -6.506509e+07 1.698366e+08 -3.642678e+07 -1.894450e+07
1.890578e+08 -1.080663e+08 -2.119987e+08 1.248984e+08 7.809318e+07 -5.152303e+07
-8.894969e+06 2.163764e+08 -9.723651e+07 -9.825126e+07 1.998886e+08 -4.642837e+07
-1.472047e+07 6.224066e+07 1.591714e+08 -8.994190e+07 -1.815884e+08 3.396800e+07
6.728283e+07 9.271001e+07 9.973881e+07 -3.365012e+06 -1.760359e+08 -1.708105e+08
1.081565e+08 2.041800e+07 1.171573e+07 -1.127593e+08 4.860936e+07 -5.546921e+07
8.528156e+07 1.590448e+08 2.965243e+07 -1.016396e+08 6.209361e+07 -2.265619e+08
5.078890e+07 -2.175908e+08 3.500752e+07 1.493723e+08 -1.413871e+08 2.233769e+08
7.188701e+07 -9.567008e+07 2.367674e+08 -3.065956e+07 1.551057e+08 9.933183e+07
-1.867724e+08 1.601532e+08 9.914992e+07 -3.072294e+07 1.999487e+08 -9.329105e+07
-1.676802e+08 1.328826e+08 1.739115e+08 -1.956025e+08 -7.881485e+07 1.095370e+08
1.404465e+06 -1.095216e+08 1.904871e+08 -1.084316e+08 -1.172412e+08 -1.501534e+08
1.321759e+08 -1.884962e+08 2.942912e+07 2.369062e+08 -1.424225e+08 1.324764e+08
1.451076e+08 4.080416e+07 5.384266e+07 5.747061e+07 2.010619e+08 9.351344e+07
1.461297e+08 -3.004438e+07 9.540773e+07 1.814758e+05 -7.152742e+07 8.034103e+07
1.886003e+08 -1.677469e+07 1.018750e+08 -9.674371e+05 1.998593e+08 -1.873120e+08
-1.363421e+08 8.610594e+07 1.436014e+08 3.036691e+06 8.534483e+07 5.857584e+07
1.298650e+07 2.484564e+08 -7.556235e+07 1.792919e+08 2.215025e+08 1.949415e+08
-3.593072e+07 2.277994e+08 -2.117376e+08 -2.484593e+08 1.527914e+08 -2.451523e+08
-1.764439e+08 1.062297e+08 1.040369e+08 1.118870e+08 7.822759e+07 1.669358e+08
-2.565069e+07 -9.918722e+07 1.804086e+08 1.321391e+08 -2.263615e+08 7.187138e+07
-1.205160e+08 2.420794e+08 -1.076672e+08 7.058240e+07 1.397246e+08 1.334174e+08
-8.322656e+07 2.386152e+08 2.032554e+08 -2.007871e+08 -2.781344e+07 5.509450e+07
-1.494006e+08 -1.206002e+08 -1.847716e+08 4.867457e+07 -1.616551e+08 -1.105902e+08
2.046660e+08 1.659030e+08 2.193985e+08 1.422111e+08 -2.204812e+08 -2.051472e+08
9.886858e+07 1.445576e+08 1.768697e+08 -1.852988e+06 1.277821e+08 1.614063e+08
-2.339189e+08 1.805898e+08 -1.428122e+08 2.068526e+08 2.861310e+07 -9.211352e+07
9.206264e+06 2.123161e+08 -2.418403e+08 8.239940e+07 -1.235328e+08 -1.072165e+08
1.695344e+08 -1.144995e+08 6.744497e+07 8.195363e+06 1.925640e+08 2.175628e+08
2.930784e+07 -7.082589e+07 2.491869e+08 1.796116e+07 2.343997e+08 9.494119e+06
-1.543390e+08 -1.178194e+08 -1.310977e+08 4.893409e+07 1.306825e+08 1.278497e+07
-2.299971e+08 -1.284351e+07 7.662049e+07 -2.121818e+07 2.463201e+08 -6.967631e+07
2.402838e+08 1.906009e+08 2.124658e+08 1.622735e+08 2.134500e+08 2.351745e+07
2.300867e+08 -1.840681e+08 5.523109e+07 -7.384585e+07 5.944561e+07 -7.118534e+07
-2.105694e+08 1.818943e+08 -1.990626e+08 -5.515707e+07 2.449147e+08 1.574368e+08
-2.301543e+07 5.007444e+06 -2.359166e+08 8.919997e+07 -4.558990e+07 -2.846069e+07
-2.410534e+08 2.300012e+08 1.226637e+08 -7.068694e+06 -1.507492e+08 1.986610e+08
-7.974644e+06 5.411464e+07 -1.327734e+08 -7.628283e+07 5.544134e+07 -2.122057e+08
-5.673723e+07 2.469707e+08 1.225993e+08 -7.001114e+07 1.789546e+08 -2.376029e+08
1.036237e+08 -3.473261e+07 -2.912022e+07 2.375417e+08 -9.993476e+06 -1.462688e+08
1.229276e+08 1.809888e+08 1.049643e+06 -1.442853e+08 -1.729909e+08 1.035236e+08
1.777953e+08 -6.432279e+07 -1.513125e+08 1.732044e+08 4.076183e+06 4.917842e+07
1.470822e+08 -1.439824e+07 1.327354e+08 -1.993426e+08 1.655401e+08 2.456928e+08
-5.664484e+06 7.757720e+07 -1.099799e+08 2.347659e+08 2.446145e+08 9.717685e+07
-9.829008e+07 -1.907467e+08 1.377538e+08 1.068026e+08 -2.086092e+08 -1.420264e+08
2.155514e+07 -1.164459e+08 2.363489e+08 -2.333657e+08 -2.167981e+07 7.138048e+07
-1.773266e+08 1.541718e+08 8.369381e+07 2.370155e+08 8.399343e+07 1.525418e+08
-3.980147e+07 6.607760e+06 -1.763674e+08 4.249806e+07 2.131484e+08 5.694641e+07
-2.328340e+08 -1.401453e+07 -3.493496e+07 -1.091633e+08 9.404513e+06 -2.075903e+08
2.344163e+08 -1.981427e+08 2.070820e+08 2.206145e+08 1.733997e+08 -1.018555e+08
-1.207942e+08 1.072234e+07 2.459894e+08 -6.710605e+07 -1.757252e+08 -1.224977e+08
-6.890379e+07 1.456283e+08 1.531513e+08 -1.959109e+08 -5.061847e+07 -2.465281e+08
2.892828e+06 -1.419169e+07 -1.563591e+07 1.399378e+08 1.276326e+08 9.317810e+06
8.087228e+07 -2.077852e+08 -1.774842e+08 -1.641873e+06 -2.482318e+08 1.945852e+07
-6.619254e+06 -1.511530e+05 2.210929e+08 2.362288e+08 -1.153645e+08 1.088422e+08
-2.385864e+08 1.543995e+08 2.436670e+08 -1.844525e+08 -2.063315e+07 -6.821648e+06
-1.110610e+08 2.097906e+08 -2.427783e+08 2.482781e+08 2.318650e+08 -5.500683e+07
2.330550e+08 -1.677575e+08 -6.126644e+07 -7.268862e+07 -1.036781e+08 1.764083e+08
1.626838e+08 -1.180703e+08 -8.416150e+07 1.365016e+08 -1.837182e+08 1.183170e+08
4.526877e+07 -1.935909e+08 2.058112e+08 -1.748014e+08 -4.703786e+07 -1.756614e+08
2.027688e+08 6.356539e+07 1.926545e+08 2.265838e+08 2.380992e+08 2.192376e+08
1.104743e+08 1.323609e+08 1.798205e+08 5.176346e+07 1.420765e+08 3.758616e+07
9.376288e+07 -2.541793e+07 -4.608135e+07 -1.179571e+08 1.261843e+08 8.834958e+07
-2.215143e+08 -1.840798e+08 2.744616e+07 -1.175444e+08 1.845455e+08 2.188790e+07
-6.192769e+07 2.141944e+08 8.862649e+07 1.469326e+08 1.694292e+08 2.030123e+08
-4.241559e+07 1.750412e+08 -2.354014e+08 -2.184677e+08 -3.007831e+07 1.342235e+08
1.224135e+07 -7.708598e+07 -1.303225e+08 2.494460e+08 -6.545557e+07 5.014028e+07
-1.449204e+08 1.635019e+08 3.306526e+07 2.479318e+08 -9.580788e+07 -1.291876e+08
-1.534125e+08 -2.001705e+08 1.535992e+08 1.400700e+08 1.792265e+08 -3.931585e+07
-2.070288e+08 -2.978524e+07 -5.299686e+06 -6.557197e+07 9.545412e+07 2.995374e+07
-1.906715e+08 6.233341e+06 1.091754e+08 -1.410455e+08 -1.340886e+08 -7.556832e+07
-2.208797e+07 2.878740e+07 1.053365e+08 1.559064e+08 5.391102e+07 -2.260286e+08
-2.575487e+06 2.909311e+07 1.486777e+08 4.441045e+06 -1.985863e+08 1.898341e+08
9.460092e+07 4.511972e+07 -1.144739e+07 -8.281801e+06 1.655129e+07 1.965054e+08
4.309531e+06 -7.006579e+07 -3.351042e+06 4.148979e+07 -2.115997e+08 -1.353042e+08
-1.519037e+08 2.428507e+08 5.312854e+07 -1.457701e+08 2.181691e+08 2.209398e+08
-2.279217e+08 2.095298e+08 3.925176e+07 -5.928996e+07 1.363196e+08 -1.281143e+07
1.441447e+07 1.812909e+08 -1.772748e+08 -7.970317e+07 4.722834e+07 -6.018969e+07
-1.993235e+08 -1.516750e+08 3.211357e+07 -2.463728e+08 1.507603e+08 -6.507101e+07
-2.123251e+08 1.166971e+08 -1.097739e+08 2.446300e+08 -2.477136e+07 1.239001e+08
1.062887e+06 -7.434627e+07 1.725735e+08 -6.073589e+07 4.384691e+07 -1.540924e+08
-3.671402e+07 -1.297998e+08 1.768825e+08 1.686980e+08 1.303613e+07 -9.359568e+07
-1.585685e+08 -4.257149e+07 -1.522392e+08 -1.493770e+08 -2.476396e+08 -1.621310e+08
-1.282161e+08 1.830062e+08 6.806071e+07 -1.497647e+08 -1.671197e+08 -1.159832e+08
1.948273e+07 -9.031665e+07 9.593697e+07 1.186123e+08 -2.381209e+08 -7.677570e+07
2.214101e+07 -1.757733e+08 1.554338e+08 1.896317e+08 -4.226292e+07 2.353892e+08
3.894897e+07 1.728469e+08 -1.405917e+08 -1.051178e+07 -2.121377e+07 9.038087e+05
2.375212e+08 -2.058436e+08 -1.985841e+08 -7.795754e+07 2.249751e+08 -8.015749e+07
1.868321e+08 -1.550412e+08 1.896549e+08 8.689732e+07 -1.360219e+08 -7.236009e+07
6.706957e+07 2.377423e+08 7.573972e+07 1.280164e+08 -1.379892e+08 -3.932972e+07
4.449890e+07 -2.146619e+08 1.784535e+08 -7.631745e+07 1.416252e+08 -2.080434e+08
-1.321843e+08 6.659573e+07 1.046592e+08 9.352186e+07 4.011519e+07 -2.480395e+07
-1.154857e+08 -1.642287e+08 -3.309342e+07 1.390122e+08 2.887411e+07 2.475921e+08
9.166091e+07 1.377653e+08 -2.461496e+08 2.915041e+07 8.317583e+07 -2.243455e+08
-2.047043e+08 -9.681792e+07 -2.160753e+08 1.581491e+08 2.243128e+08 4.859984e+07
-3.638861e+07 3.438067e+07 2.587395e+07 2.475561e+08 2.137310e+07 1.704156e+08
2.466151e+08 1.580527e+08 4.603773e+07 1.036347e+08 1.490582e+08 -2.159654e+08
2.454618e+08 -2.761601e+07 -4.881594e+07 1.267567e+08 9.301622e+07 2.111121e+08
6.788669e+07 -1.292078e+08 2.498024e+08 -6.776996e+07 1.806323e+08 -1.344943e+08
-1.123488e+08 5.491810e+07 1.927324e+08 -2.313075e+08 1.737466e+07 -1.298100e+08
-2.446525e+08 -2.400012e+08 -2.423261e+08 1.366591e+08 -7.333722e+07 3.563714e+07
-1.920227e+08 -1.940178e+08 -1.364039e+08 6.783900e+07 9.126828e+07 -1.173975e+08
1.667337e+08 -9.859288e+07 -1.734976e+08 -1.947425e+08 1.725724e+08 2.093223e+08
5.035874e+07 -2.136261e+08 1.535915e+08 9.826405e+07 -1.763911e+08 -1.843457e+08
8.347884e+07 -4.065204e+07 -6.304943e+07 5.453074e+07 1.230432e+08 2.015524e+08
6.829033e+07 1.840791e+08 -5.273716e+07 -2.270165e+08 -1.782241e+07 2.116396e+08
1.148317e+07 5.992973e+06 -1.155574e+08 2.280730e+08 -1.201783e+08 6.785659e+07
9.142343e+07 6.318124e+07 2.361831e+08 9.250746e+07 1.655426e+08 2.334541e+08
4.520973e+07 -1.529095e+08 1.977247e+08 4.166728e+07 1.920017e+08 -1.228923e+07
-2.222815e+08 -5.685114e+07 -1.311847e+08 4.083935e+07 -2.391583e+08 -7.885447e+07
1.406010e+08 1.921853e+08 -1.006919e+08 1.593011e+08 -1.371263e+08 2.135640e+08
3.550013e+06 1.829340e+08 -6.230727e+07 9.933313e+06 -1.817934e+08 1.234555e+08
1.263690e+08 8.347139e+07 4.972061e+07 2.234465e+08 2.419470e+08 1.798440e+08
2.455390e+08 -7.659178e+07 -9.269697e+07 1.671728e+08 -1.913440e+08 -9.790235e+07
1.239300e+07 6.608875e+07 1.837435e+08 1.612189e+08 -1.568691e+08 1.561930e+08
2.445855e+08 -1.079114e+08 1.012703e+08 1.298306e+08 -2.473373e+08 2.357719e+08
-7.759902e+07 -2.882154e+07 -2.017612e+08 -5.205097e+07 1.478126e+08 -8.202770e+07
-5.221024e+05 -1.804126e+08 -1.458245e+08 -2.455153e+08 -6.353144e+07 -3.518283e+07
-1.454517e+08 2.279859e+08 -7.603254e+07 -1.557767e+08 -4.997401e+07 2.046203e+08
-1.306594e+08 2.171038e+08 -9.804710e+06 5.804491e+06 1.496199e+08 9.837481e+07
-8.793989e+07 2.254431e+08 -2.017531e+08 7.113142e+07 -1.898191e+08 7.088873e+07
1.601448e+08 -4.309588e+07 1.676611e+08 9.793120e+07 1.255541e+08 5.054844e+07
4.607692e+07 1.538673e+08 -1.721949e+07 -1.237889e+08 1.690188e+08 4.747828e+07
-1.159689e+08 6.314693e+07 1.903647e+07 -1.170480e+08 -1.416727e+08 2.072328e+08
-1.638638e+08 -9.444518e+07 -2.023800e+07 1.840575e+08 3.097531e+07 -2.477785e+08
8.662759e+07 -9.772871e+07 1.241230e+08 2.002259e+08 -2.395907e+08 2.039775e+08
1.709932e+08 1.367415e+08 -1.638820e+08 -7.020937e+07 2.381858e+08 -2.305756e+08
-5.651127e+06 -1.070742e+08 -1.607166e+08 9.412673e+07 2.465055e+08 1.984721e+08
1.623262e+08 3.311516e+07 2.358664e+08 2.085119e+07 -1.686542e+08 -4.578978e+07
-1.566264e+08 -1.888948e+08 8.100001e+07 -2.321996e+08 1.618707e+08 -7.069036e+06
9.189440e+07 2.447824e+08 -1.719817e+08 1.784906e+08 5.895363e+07 -2.102854e+08
2.432697e+08 -2.338670e+08 2.010082e+08 -6.194718e+07 -4.563569e+07 6.235410e+07
-1.231621e+08 1.183048e+07 -9.087930e+07 -1.048363e+08 4.242141e+06 -1.077084e+08
-2.223866e+08 5.449579e+07 1.968470e+08 -1.468275e+08 -1.351085e+08 1.924847e+08
-1.367242e+07 5.531813e+07 2.061913e+08 3.049545e+06 -2.055657e+08 -2.466166e+08
-1.730526e+08 -2.331434e+07 1.300194e+08 -1.732002e+08 2.434158e+07 -1.371250e+08
2.322862e+07 2.315010e+08 -1.908291e+08 -1.094955e+08 -2.921977e+06 1.459385e+08
-1.548863e+08 1.899878e+08 1.774239e+08 2.242539e+08 1.812306e+08 -9.583537e+07
-2.072802e+08 -2.287992e+08 9.299193e+07 2.148532e+08 -2.476025e+08 -1.634054e+08
1.237890e+08 1.868309e+08 -1.392108e+08 -4.418734e+07 -1.253692e+08 -1.715380e+07
5.734407e+07 -1.259183e+08 1.191202e+08 -1.921361e+08 1.682598e+08 2.251295e+08
1.755702e+08 -2.294929e+08 4.625038e+07 1.719704e+08 2.473962e+08 -6.087289e+07
1.673215e+08 -1.540681e+08 1.878734e+08 3.550625e+07 2.415327e+08 2.072352e+08
-7.987718e+06 -2.081993e+08 -4.517833e+07 1.540305e+08 -3.052156e+07 1.451227e+08
1.654508e+08 1.883599e+08 -5.812177e+07 -4.394659e+07 1.612155e+08 -1.395542e+08
1.130947e+08 2.263518e+08 -2.496426e+08 -1.791539e+08 -1.769711e+08 -8.413857e+07
-1.912175e+08 -1.164627e+08 -1.686860e+08 -9.673112e+07 -2.016228e+08 7.562861e+07
-8.010707e+07 2.087163e+08 -7.587178e+07 1.361799e+07 1.114432e+08 1.962847e+08
-1.302110e+08 -1.975673e+07 -1.701188e+08 7.214920e+06 -1.142596e+06 1.029877e+08
-3.728121e+07 1.270677e+08 1.540995e+08 -1.638112e+08 -2.141621e+08 -2.409280e+08
-1.146978e+08 2.013399e+07 -7.842096e+07 1.269869e+08 -4.324063e+07 -2.020977e+08
1.891579e+08 1.717714e+08 -5.816775e+07 2.317802e+07 7.088102e+07 8.890414e+07
-2.414545e+08 -1.458068e+08 -2.448425e+08 -1.976347e+08 -1.100302e+08 -1.506428e+08
-1.336303e+08 2.188189e+08 -1.146902e+08 -1.145192e+08 3.247800e+07 -9.536032e+07
2.269547e+08 -3.434538e+07 -7.296896e+07 -3.833460e+07 6.849144e+06 -2.653314e+07
1.503099e+08 1.502452e+08 -1.444959e+08 -1.161570e+07 -6.310268e+07 3.026907e+07
-2.900994e+07 2.961608e+07 1.446465e+08 9.626345e+07 7.468402e+07 8.472533e+07
6.421291e+05 1.109519e+08 -8.690442e+07 1.199976e+08 -2.144238e+08 -7.628440e+07
3.583030e+07 2.485496e+08 -9.137341e+07 1.739964e+08 -9.660535e+07 1.521955e+08
4.247808e+07 1.166306e+08 -5.065360e+07 -1.455810e+08 -1.802988e+08 1.513834e+08
2.314917e+08 2.016109e+07 -2.273662e+08 1.053957e+08 7.457002e+07 4.374503e+07
-1.493562e+08 1.760298e+08 2.344415e+07 1.492148e+08 -2.345079e+08 -1.099530e+07
-1.506371e+08 9.529694e+07 2.089150e+08 1.463539e+07 -2.446620e+08 2.123524e+08
-2.149951e+08 -1.237744e+08 -8.749231e+07 -1.732466e+08 -1.875016e+07 -1.085429e+08
-1.049100e+08 7.820876e+07 1.317125e+08 2.419654e+08 -2.430246e+08 -2.218774e+08
1.323205e+08 1.556963e+08 2.102819e+08 -2.108584e+08 2.085359e+08 2.260018e+07
5.488143e+07 1.324191e+08 -2.041932e+08 2.424815e+08 -8.103826e+07 4.603163e+07
-1.508410e+08 -8.660716e+07 1.040617e+08 -2.217892e+08 1.775684e+08 -1.556416e+08
4.585014e+07 -1.910339e+08 -2.320804e+08 -1.659175e+08 1.373049e+08 -1.289857e+08
6.032330e+07 2.281212e+08 -2.428180e+08 -7.749716e+07 1.846682e+08 -2.238111e+08
-4.178301e+06 8.880024e+07 -1.101153e+08 -5.162510e+06 -5.703887e+07 8.347966e+07
-2.456721e+08 9.797889e+07 -1.727590e+08 -6.549746e+07 -5.552747e+07 -2.203459e+08
-1.752312e+08 -1.990365e+08 2.399745e+08 -2.254069e+08 3.183113e+07 -8.224892e+07
2.465305e+08 -6.544252e+07 -1.923768e+08 1.010184e+08 -1.145309e+08 -1.678776e+08
1.127536e+08 6.068970e+07 -1.392623e+08 -2.064599e+07 1.419885e+08 -2.455083e+07
-1.214723e+08 2.453683e+08 2.183287e+08 -1.555305e+07 3.971773e+07 -1.677662e+08
-1.988326e+08 -3.223336e+07 1.204218e+08 -2.326013e+07 -2.038643e+08 9.410196e+07
-4.937538e+07 2.153517e+08 -1.663319e+08 4.373376e+06 -1.483262e+08 -6.471139e+07
7.787976e+07 2.598970e+06 2.208288e+08 1.862443e+08 -1.291193e+07 1.284635e+08
2.689674e+07 9.650821e+07 1.825500e+08 -1.746992e+07 1.885674e+08 -1.013091e+06
2.017195e+08 2.028224e+08 2.361078e+08 2.408164e+08 3.880908e+07 -1.499244e+08
-1.757204e+08 -5.744979e+06 -2.450950e+08 2.066466e+08 -2.895095e+07 2.913987e+07
2.130569e+08 1.009532e+08 3.617795e+07 -2.679473e+07 -1.494616e+08 5.347298e+07
-7.525166e+06 2.023970e+08 7.843287e+07 -2.197241e+08 2.038693e+08 -1.720794e+08
-2.410492e+08 -2.498637e+08 1.681570e+08 -1.482261e+08 -4.701145e+07 -1.730278e+07
2.211683e+08 -1.297753e+08 2.378445e+08 -2.021101e+08 -2.402682e+07 7.313235e+07
5.796486e+07 1.584833e+08 -1.674926e+08 5.770963e+07 -1.980199e+08 1.048263e+08
1.112912e+08 1.909434e+08 1.825950e+07 7.016743e+07 -1.515147e+08 2.278527e+08
2.427145e+08 6.529769e+07 1.017204e+07 -4.127300e+07 1.876751e+08 1.495155e+08
3.692371e+06 1.130865e+08 1.324823e+08 9.037150e+07 3.131470e+07 1.065629e+08
-2.393527e+07 -1.093130e+08 -9.506237e+07 1.456203e+08 -3.996350e+07 6.384823e+07
-2.110840e+08 -2.232071e+08 -9.338106e+07 -2.134345e+08 1.886188e+08 -2.004010e+07
-2.113378e+08 1.412944e+08 8.008480e+07 7.077347e+07 7.448511e+07 -2.361455e+08
7.502653e+07 3.167996e+07 -1.627978e+08 -1.443747e+08 2.276673e+07 2.174664e+08
-1.101206e+08 1.092701e+08 6.526015e+07 -2.063479e+08 -1.071517e+08 -2.681284e+07
-8.997807e+07 -9.718272e+06 -2.449305e+08 -2.158932e+08 -1.359164e+08 -2.378048e+08
7.981989e+07 -1.796067e+08 -1.840342e+08 2.356635e+08 8.442894e+07 -6.934494e+07
1.268105e+08 -2.330758e+08 -1.349313e+08 -1.453523e+08 8.594540e+07 -2.486702e+07
1.328905e+08 1.163760e+08 -1.767601e+07 -2.208316e+08 -2.248796e+08 1.237922e+08
3.455637e+07 -1.913230e+08 5.096076e+07 -9.818440e+07 -1.214683e+08 1.602003e+08
1.345871e+08 1.119720e+08 -1.764945e+08 -1.360221e+07 -1.644157e+08 -2.075357e+08
-2.359068e+08 1.040335e+08 -1.746907e+08 1.925542e+08 -5.146083e+07 -2.022043e+08
-6.969637e+07 1.623004e+08 -4.434152e+07 2.351635e+08 9.275889e+07 1.083725e+08
1.471814e+07 -3.209662e+07 2.149845e+08 -1.124149e+08 2.151903e+08 9.703511e+07
2.229065e+08 8.911476e+07 9.205794e+06 5.785292e+07 -1.366341e+07 7.798611e+07
2.300636e+08 1.932035e+07 1.174348e+08 1.086000e+06 1.130170e+08 8.482271e+07
-2.233963e+08 2.660531e+07 -9.465602e+07 -1.530385e+08 -1.046727e+08 -1.800106e+08
-2.342376e+08 2.128282e+08 -1.967262e+08 1.512515e+08 1.208326e+08 2.230627e+08
-1.438700e+08 3.484506e+07 -9.776795e+07 -4.627100e+07 1.601028e+08 -6.820509e+07
2.418724e+08 1.763338e+07 1.511147e+08 5.589009e+07 2.534418e+07 5.932584e+07
-9.822757e+07 -8.316628e+06 5.087191e+07 3.547339e+07 -2.471625e+07 9.912046e+06
1.526651e+08 -7.453999e+07 -1.348145e+08 7.535808e+07 1.168886e+08 1.125138e+08
-2.785926e+07 -1.145147e+08 2.363093e+07 -1.778232e+08 1.821682e+08 2.824094e+07
-1.033397e+08 2.131235e+08 -2.301973e+08 -1.080432e+08 1.402183e+08 -1.552701e+08
-1.620537e+06 -1.753920e+08 -1.873332e+08 -3.550433e+07 2.265375e+08 -2.073433e+08
-5.422329e+07 1.405141e+08 2.116934e+08 -2.323629e+08 2.308538e+08 -3.214302e+07
-8.389734e+07 -1.341960e+08 -1.727009e+08 -1.513550e+08 1.689952e+08 1.243970e+08
-8.318297e+07 -5.878941e+07 -2.044771e+08 -3.515927e+07 2.145857e+08 8.391622e+07
-1.533190e+08 8.066725e+07 1.553078e+08 1.939387e+08 -2.395577e+08 -4.740556e+07
-7.755193e+07 -1.832133e+08 -3.926911e+07 4.444449e+07 -2.062674e+08 1.873133e+07
5.023115e+07 1.215730e+08 -1.579126e+08 5.036275e+07 -1.923449e+08 2.060237e+08
-1.447903e+08 -9.966512e+07 -2.252526e+08 -2.770717e+07 4.744101e+07 1.036209e+08
1.540417e+07 -2.032182e+08 1.817857e+08 -6.042175e+07 6.848545e+07 1.166127e+08
2.288392e+08 2.722846e+07 -5.908429e+07 -1.923714e+08 -1.379609e+08 -1.804980e+08
1.494475e+08 4.301041e+07 -5.360805e+07 -1.287200e+08 -1.770685e+08 -2.291092e+08
-5.839238e+07 1.621665e+08 -1.974754e+08 7.426771e+07 -2.281192e+08 1.261636e+08
5.585890e+07 6.613159e+06 1.823680e+08 -2.858392e+07 3.170409e+07 -2.187430e+08
1.156814e+08 -1.031583e+08 2.104720e+08 1.686733e+08 -1.423395e+08 -1.115697e+08
2.415738e+08 -2.006383e+08 -9.132068e+07 2.253012e+08 2.297302e+08 -1.279065e+08
-8.101883e+07 -1.542356e+08 -1.609697e+08 -1.972401e+08 -2.384625e+08 1.469115e+08
-9.555337e+07 -1.135070e+08 -1.499373e+08 1.015617e+08 2.275096e+08 -2.249849e+08
-1.611175e+08 -1.430649e+08 3.985020e+07 -1.606629e+08 -1.416500e+08 -7.369340e+07
7.991062e+07 -1.273579e+08 1.679586e+08 5.433142e+07 1.851302e+08 1.199122e+08
-8.279471e+07 1.367236e+08 1.109529e+08 -2.124290e+08 -1.082123e+08 9.018982e+07
-1.564459e+08 -4.344088e+07 2.279406e+08 1.729247e+07 -2.433864e+08 -1.170018e+08
-6.186314e+07 -2.137930e+08 1.188488e+08 2.445741e+08 -2.310212e+08 2.220270e+08
2.391363e+08 -5.913375e+07 -1.514053e+08 1.604893e+08 2.344506e+08 7.418853e+07
-4.411447e+07 -2.191373e+08 -5.919572e+07 9.537176e+07 7.393520e+07 2.371547e+07
9.411257e+07 2.432106e+08 5.205665e+07 1.711735e+08 8.816239e+07 1.724168e+07
-1.344295e+08 2.431424e+08 6.182840e+06 1.217480e+08 2.348992e+08 -2.297880e+08
2.164651e+08 1.080729e+08 -1.504334e+07 -2.178333e+08 -2.240052e+08 -5.284344e+07
2.264499e+08 1.774672e+08 -1.723550e+08 -5.790346e+06 -8.684081e+07 -7.790795e+07
1.811638e+08 1.146697e+08 -9.229077e+07 1.763413e+08 -4.069372e+07 7.779050e+07
1.155475e+08 2.205483e+08 1.169518e+08 8.717112e+07 -2.409462e+08 -2.057472e+08
-1.492565e+08 1.754382e+08 -1.961349e+08 -5.813022e+07 1.244497e+08 -4.669701e+07
2.423205e+08 7.763556e+07 -1.079801e+08 4.140449e+07 -2.353009e+08 4.886852e+07
-1.140083e+08 6.088645e+07 3.220668e+07 -2.470161e+08 -1.719204e+08 1.817531e+08
8.352551e+07 -1.354861e+08 -1.760176e+08 -2.497747e+08 -2.014265e+08 2.314464e+07
1.356924e+08 2.069250e+08 -1.305704e+08 -2.344646e+08 3.134892e+07 -1.009278e+08
-7.020827e+07 1.251033e+08 1.156172e+08 -6.905182e+07 -1.021503e+08 -1.800231e+08
1.984221e+07 -7.915440e+07 -5.250155e+07 5.233264e+07 -1.060998e+08 2.103319e+08
1.521410e+08 -1.231396e+08 4.745386e+07 2.196459e+08 1.256127e+08 9.914854e+07
2.406862e+07 2.413692e+08 1.023062e+08 2.245247e+07 1.610051e+07 -4.567467e+07
2.498392e+08 -6.458857e+07 -1.317042e+08 1.402776e+08 -2.488920e+08 1.634147e+08
-2.742041e+07 -2.413204e+08 4.954865e+07 -6.853134e+07 -8.858146e+07 2.442430e+08
2.475293e+08 3.994438e+07 -1.311609e+08 1.411902e+08 8.813831e+07 -1.530136e+08
-2.798551e+07 -2.346615e+08 1.146307e+08 1.221567e+08 -9.842487e+07 2.436162e+08
-2.247194e+08 -9.813201e+07 1.774600e+07 1.877774e+08 -1.142090e+08 1.455222e+08
2.301337e+08 1.024284e+08 -1.374745e+07 -5.137632e+07 -2.371917e+07 -2.198974e+08
1.877585e+08 -1.237577e+08 1.561512e+08 -3.143103e+07 9.701051e+07 2.328125e+08
2.270720e+07 -1.796827e+08 1.112851e+08 -7.620746e+07 1.581242e+08 -2.477054e+08
-1.683719e+08 9.207058e+07 -1.788850e+08 -7.879897e+07 -1.642662e+08 6.557404e+07
-1.090875e+08 -2.148321e+08 -1.489942e+06 -2.151132e+08 -1.720743e+08 -1.565887e+07
1.332561e+08 1.313959e+08 -7.540656e+07 5.012502e+07 9.487019e+07 2.439888e+08
2.994457e+07 -1.137173e+08 -2.322947e+08 -2.636425e+07 -1.638670e+08 1.526602e+08
1.213615e+08 5.664146e+07 1.403266e+08 -2.469320e+08 -3.550044e+06 -9.378933e+07
1.559405e+08 2.148053e+07 -5.355228e+07 1.768117e+08 2.342429e+08 4.526576e+07
1.654455e+07 1.095582e+08 6.046584e+07 2.453890e+08 -1.091879e+08 -1.378062e+08
2.137290e+08 -4.041014e+07 -1.922311e+08 -1.223444e+08 -1.491997e+08 -1.276478e+08
2.029843e+08 1.957694e+08 1.878920e+07 9.609805e+06 -1.119326e+08 2.255612e+08
-1.773590e+08 6.584449e+07 1.861565e+08 2.063786e+08 7.517011e+07 7.287158e+07
-1.481723e+08 -1.582273e+08 -1.361582e+08 -1.803265e+08 3.380158e+07 -1.027440e+08
-1.594047e+07 2.032357e+08 6.783249e+07 -6.171832e+07 -1.205086e+08 -8.650562e+07
4.885343e+07 1.015915e+08 2.576907e+07 -1.591939e+08 -1.323488e+08 -2.495827e+08
1.701746e+08 -2.417036e+08 -1.165610e+08 1.595141e+08 1.750365e+07 -9.862686e+07
-2.144804e+08 -2.443502e+08 -8.475181e+07 5.979361e+06 3.749746e+07 -2.355985e+08
4.390858e+07 -1.239949e+08 -2.421288e+08 -1.455430e+08 1.461230e+08 7.997504e+07
-1.717256e+08 -2.428579e+08 -2.247995e+08 -9.472225e+07 1.144711e+07 -2.311169e+08
-8.991128e+06 -6.966945e+07 -8.289312e+07 8.015227e+07 -1.972626e+07 5.626076e+07
1.196677e+08 1.996369e+08 1.390342e+08 -1.895529e+08 -5.550517e+07 2.194268e+08
1.585897e+08 3.274983e+07 -1.343688e+08 -2.441943e+08 2.054705e+08 1.941930e+08
-1.357529e+07 6.428301e+07 -1.197294e+08 1.190050e+08 -2.350309e+08 -1.272876e+07
-9.170829e+07 1.238976e+08 1.718264e+08 5.965973e+07 -2.497196e+08 1.346027e+08
-2.128058e+08 1.627345e+07 -7.014442e+07 2.083735e+08 1.562413e+08 1.868106e+08
-1.735002e+08 -1.641381e+08 -1.256117e+08 -4.564494e+07 -7.165143e+07 -2.209764e+07
-1.786332e+08 -1.745136e+08 -1.990725e+08 -2.296907e+08 3.938345e+07 -1.636474e+08
-2.124848e+08 4.687974e+07 1.422407e+08 -1.889446e+08 1.820677e+08 3.743527e+07
-2.196456e+08 -1.572144e+08 2.127596e+08 1.032599e+08 -6.871703e+07 3.876198e+07
1.758905e+08 -1.868515e+08 -2.172775e+07 -8.176985e+07 -6.757927e+07 -1.994135e+07
-6.623396e+07 1.663296e+08 9.436579e+07 -3.297372e+07 -1.599112e+08 6.602914e+07
-4.472406e+07 1.804617e+08 -2.773044e+07 -2.310094e+08 2.160729e+08 1.783572e+08
-6.554493e+07 6.398198e+07 -1.450027e+08 1.892980e+08 -4.196593e+07 2.494590e+08
6.993794e+07 -1.303897e+08 9.523273e+07 2.173014e+08 1.685943e+08 6.722308e+07
9.172884e+07 6.718433e+07 1.488674e+08 -7.639674e+07 2.294431e+08 8.268289e+06
9.810097e+07 -2.210630e+08 1.905860e+08 -4.771672e+07 -4.771157e+07 -8.709720e+07
8.507829e+07 -1.992769e+08 -2.123122e+08 6.561252e+07 2.062109e+08 -5.836093e+07
3.148968e+07 1.216376e+07 -5.489315e+06 1.995668e+07 -2.759368e+07 2.476719e+08
-2.434152e+07 -1.071730e+08 1.948684e+08 -2.448070e+08 -1.684784e+08 3.479237e+07
5.740623e+07 -4.092539e+06 6.078794e+07 2.264572e+08 -1.164612e+08 -8.721038e+07
-2.341863e+07 -4.709337e+07 -2.287870e+08 2.101324e+08 1.906140e+08 -2.142814e+08
-6.905177e+07 -1.621018e+08 2.179222e+08 -1.518661e+08 -4.531705e+07 2.449564e+08
-1.112410e+08 2.033119e+08 1.437224e+08 -5.956739e+07 -2.499692e+08 -1.018311e+08
2.041291e+08 2.015497e+08 -2.214497e+07 6.445082e+06 4.213477e+06 -2.439256e+08
1.347152e+08 1.474614e+08 -1.376245e+06 -6.640340e+07 -9.572797e+07 2.305284e+08
2.281761e+08 1.789230e+08 1.808996e+08 3.804989e+07 -1.990958e+08 1.844568e+08
1.331070e+07 -6.133872e+07 1.249335e+08 -2.215680e+08 3.860269e+07 1.639428e+08
1.157623e+08 2.388516e+08 1.287613e+08 2.324573e+08 -8.560857e+07 6.117418e+06
1.469166e+08 2.453969e+08 -1.475957e+08 7.924417e+07 1.897613e+08 -3.428405e+07
1.279394e+08 1.103537e+08 1.344857e+08 6.860532e+07 -7.168972e+07 2.393232e+08
-5.261606e+07 2.028441e+06 -1.600102e+07 -1.230868e+08 8.606309e+07 2.334967e+06
1.790902e+07 -1.012477e+08 -1.495051e+08 1.837428e+08 1.685263e+08 8.331930e+07
2.151753e+08 -2.141103e+07 -4.718608e+06 -8.955536e+06 5.732559e+07 -2.163134e+08
-1.784864e+08 -1.843999e+08 -8.263812e+07 1.960914e+08 -2.471191e+08 -1.500223e+08
5.121740e+07 1.337374e+08 -1.516078e+08 -8.160502e+07 -2.161482e+08 1.261346e+08
2.272022e+07 -1.152030e+08 7.812498e+07 9.732346e+07 -3.301019e+07 -7.746315e+07
7.875615e+07 -1.188798e+08 -1.368310e+08 -1.050137e+08 -1.572988e+08 -2.079638e+08
-3.282891e+07 1.875723e+08 -8.740206e+07 8.827654e+07 -1.651708e+08 9.091000e+07
4.908608e+06 2.079191e+08 -9.779943e+06 -7.632872e+07 1.237275e+08 1.263104e+08
1.293438e+08 -2.103124e+07 2.229374e+08 -1.136097e+08 -3.073124e+07 1.122722e+08
-1.375120e+08 2.278588e+08 3.239850e+07 -2.404816e+08 -2.301663e+08 -1.290149e+08
6.705624e+06 -1.043671e+08 2.462427e+08 2.352540e+08 -2.381350e+08 -8.801791e+07
-1.220770e+08 -2.157918e+08 1.800961e+08 2.066333e+08 -2.807555e+07 2.276901e+08
2.299683e+08 1.445832e+08 -1.668086e+08 -3.941587e+07 -2.033702e+08 9.071991e+07
-5.029190e+06 -2.284010e+08 -1.243804e+08 1.599619e+08 -1.920135e+07 1.032085e+08
1.609496e+08 1.863328e+08 2.289781e+08 6.169382e+07 -5.186313e+07 4.756642e+07
-6.418660e+07 -1.482163e+07 1.670733e+08 1.628600e+08 2.389698e+08 1.240662e+08
-8.131376e+07 1.268206e+08 -1.426787e+08 9.455895e+07 3.925698e+07 1.146873e+07
1.658043e+08 2.165321e+08 -3.810645e+07 -2.416032e+08 -1.465317e+08 -9.701415e+07
-2.344926e+08 -1.516603e+08 -2.134501e+08 -2.822901e+07 8.178235e+07 2.420599e+08
8.813067e+06 -1.535044e+08 1.324722e+08 3.894381e+07 -2.039958e+08 1.658887e+08
5.150303e+05 1.369748e+08 9.676707e+07 1.406654e+08 7.998651e+07 -6.108957e+07
1.635942e+08 -2.095925e+08 -1.280756e+08 -1.763962e+08 -1.370918e+08 -7.578450e+07
-3.745694e+07 -6.063235e+07 -5.677706e+07 2.097146e+08 -1.103958e+08 1.000370e+08
-8.936510e+07 -1.523700e+08 2.316147e+08 1.675807e+08 1.974011e+08 6.231333e+07
-1.940584e+08 2.323657e+08 2.056042e+08 -1.448500e+07 5.136984e+07 2.264421e+08
2.249311e+08 -1.442251e+08 1.281559e+08 -1.155715e+08 -9.545485e+07 8.095385e+07
-2.162743e+08 1.469719e+08 1.741405e+08 1.397993e+08 7.477838e+07 1.907213e+08
-1.807912e+08 -1.460588e+08 -1.180866e+08 2.461528e+08 1.882292e+08 -7.793239e+07
2.111729e+08 -1.931122e+08 9.830527e+07 5.962333e+07 2.051844e+08 -1.785398e+08
1.065641e+08 -9.166157e+07 -1.344890e+08 -1.951603e+08 1.137780e+08 -7.949093e+07
-1.334005e+08 -3.634546e+07 1.784341e+08 -1.826454e+08 -4.777196e+07 1.257707e+08
2.136691e+08 5.410912e+07 1.609048e+08 -1.332872e+08 -2.756894e+07 -1.970530e+07
1.913515e+07 -2.244385e+08 9.039973e+07 -4.564749e+06 -1.900263e+08 1.520273e+07
-5.970254e+07 -3.322813e+07 7.350847e+06 1.976472e+08 1.012733e+08 1.040845e+08
-9.602296e+06 1.331823e+07 7.384785e+07 -1.047664e+08 -5.374070e+07 7.664253e+07
3.949555e+07 -9.065790e+07 -5.571085e+07 -1.187860e+08 1.045564e+08 -8.882667e+07
-5.653677e+07 1.339595e+08 -6.898721e+06 -4.775273e+07 -4.015182e+07 -1.696161e+07
5.523044e+06 -8.727340e+07 1.042637e+08 1.860090e+08 -7.413565e+07 -9.177146e+07
1.344697e+08 -1.426268e+08 4.482826e+07 2.225815e+08 2.113885e+08 1.467091e+08
2.056680e+08 1.107702e+08 5.618768e+07 1.304223e+08 1.385970e+08 2.763543e+07
2.233377e+07 -9.782840e+07 2.485111e+08 -2.319941e+08 -5.033555e+07 5.426790e+07
1.817862e+08 1.883573e+07 6.567197e+07 1.418572e+08 -2.078383e+08 -1.955539e+08
1.288469e+08 1.515642e+07 -2.127219e+07 -2.153059e+08 8.198326e+07 -3.015188e+07
-2.487524e+08 3.683822e+07 -2.050383e+08 -1.122971e+08 1.248089e+08 1.549859e+08
-9.079541e+07 -1.484422e+08 -7.797708e+07 1.611215e+08 2.130964e+08 -2.411836e+08
-4.322013e+07 -8.396384e+07 -2.251404e+08 4.427470e+07 -1.977494e+08 -1.305023e+08
1.830039e+08 2.204400e+08 -9.924695e+07 -7.831203e+07 1.659295e+08 -1.561245e+08
2.254428e+08 1.695394e+08 1.261626e+08 -1.494852e+08 -1.287433e+08 -2.249818e+08
-8.500668e+05 6.029920e+07 -8.084646e+06 2.230609e+08 5.207041e+07 2.177422e+08
-1.704764e+08 7.784084e+07 -1.000886e+08 5.842373e+07 3.573088e+07 -9.499607e+07
2.018535e+08 5.273444e+07 1.618429e+08 1.511607e+08 -9.755385e+07 2.080201e+08
-1.089569e+07 -1.406751e+08 -7.810786e+07 -1.232766e+08 -2.209245e+08 -9.237062e+07
2.347462e+08 8.466809e+07 -1.429297e+08 -1.343740e+07 -1.749407e+08 -2.355113e+08
2.454729e+08 -2.138497e+07 -9.387694e+07 -3.978450e+07 1.566036e+08 1.936028e+08
-1.901555e+08 1.902709e+08 7.178746e+07 2.473851e+08 -1.977052e+08 -2.245739e+08
-8.496396e+07 5.211035e+07 4.876728e+07 2.429096e+08 -4.844007e+06 -8.845032e+07
-2.228587e+08 1.234449e+08 1.587095e+08 -1.851641e+08 -1.420031e+08 4.202205e+07
9.815717e+07 1.903590e+08 7.776966e+06 -7.822628e+07 2.832486e+07 -8.583241e+07
-1.277515e+08 6.572544e+07 1.871671e+08 2.218117e+08 1.252228e+08 3.971745e+07
7.507662e+07 -2.451328e+08 1.816237e+08 2.015128e+07 4.894720e+06 -1.436882e+08
1.307461e+08 -1.037298e+08 -2.486849e+08 -1.922393e+08 -5.007612e+07 -2.402664e+08
-1.348492e+08 -2.407623e+08 -3.292467e+07 1.081535e+08 1.372936e+08 -1.936904e+08
-1.225348e+08 -2.152119e+07 9.346090e+07 1.941414e+07 2.005386e+08 -1.792509e+08
1.605375e+08 1.597839e+07 -1.354529e+08 -1.211815e+08 1.473345e+08 -4.266956e+07
-2.154883e+07 -9.060928e+07 -1.370780e+08 -8.798338e+07 8.532054e+07 -2.144115e+08
-9.985953e+07 4.744573e+07 -2.045324e+08 -7.242096e+07 1.459720e+08 -9.417058e+07
2.106320e+08 2.357842e+08 -5.511220e+07 -1.281453e+08 3.054718e+07 1.339040e+08
2.029333e+08 2.254877e+08 -4.436881e+07 -7.975317e+07 -2.229267e+08 5.512626e+07
6.583688e+07 -1.161703e+08 1.701056e+08 -2.208030e+08 1.862484e+08 2.183225e+08
3.152101e+07 2.195362e+08 1.459699e+07 -2.251543e+08 -5.154984e+06 -3.945767e+07
1.041080e+08 1.334927e+08 1.944454e+08 1.311996e+08 4.982474e+07 1.436906e+07
